 vasp.6.4.3 19Mar24 (build May 31 2024 16:31:43) complex

 executed on             LinuxIFC date 2024.10.31  00:21:47

 INCAR:
   SYSTEM = Kpoints
   ISTART = 0
   ICHARG = 2
   PREC = Accurate
   ENCUT = 480
   LCHARG = .FALSE.
   LWAVE = .FALSE.
   ALGO = Normal
   NELM = 100
   EDIFF = 1E-6
   EDIFFG = -1E-3
   SIGMA = 0.05
   ISMEAR = 0
   ISPIN = 1
   NSW = 0
   IBRION = -1
   POTIM = .5
   ISIF = 2
   GGA = PE

 POTCAR:    PAW_PBE B 06Sep2000
 POTCAR:    PAW_PBE B 06Sep2000
   VRHFIN =B: s2p1

   TITEL  = PAW_PBE B 06Sep2000
   POMASS =   10.811; ZVAL   =    3.000    mass and valenz
   ENMAX  =  318.614; ENMIN  =  238.960 eV

  PAW_PBE B 06Sep2000                   :

 POSCAR: o-B14
  positions in direct lattice

 exchange-correlation table for PE
   RHO(1)=    0.500       N(1)  =     2000
   RHO(2)=  100.500       N(2)  =     4000

 ion  position               nearest neighbor table
   1  0.521  0.500  0.638-  14 1.64   5 1.69  13 1.70   2 1.73   9 1.85  11 1.85
   2  0.479  0.500  0.362-  13 1.64   6 1.69  14 1.70   1 1.73  10 1.85  12 1.85
   3  0.979  0.500  0.638-  14 1.64   7 1.69  13 1.70   4 1.73   9 1.85  11 1.85
   4  0.021  0.500  0.362-  13 1.64   8 1.69  14 1.70   3 1.73  10 1.85  12 1.85
   5  0.601  0.500  0.900-   1 1.69   6 1.69   7 1.70   9 1.80  11 1.80
   6  0.399  0.500  0.100-   2 1.69   5 1.69   8 1.70  10 1.80  12 1.80
   7  0.899  0.500  0.900-   3 1.69   8 1.69   5 1.70   9 1.80  11 1.80
   8  0.101  0.500  0.100-   4 1.69   7 1.69   6 1.70  10 1.80  12 1.80
   9  0.750  0.792  0.730-  11 1.69   7 1.80   5 1.80   3 1.85   1 1.85  14 1.97
  10  0.250  0.208  0.270-  12 1.69   8 1.80   6 1.80   4 1.85   2 1.85  13 1.97
  11  0.750  0.208  0.730-   9 1.69   7 1.80   5 1.80   3 1.85   1 1.85  14 1.97
  12  0.250  0.792  0.270-  10 1.69   8 1.80   6 1.80   4 1.85   2 1.85  13 1.97
  13  0.250  0.500  0.524-   2 1.64   4 1.64   3 1.70   1 1.70  10 1.97  12 1.97
  14  0.750  0.500  0.476-   1 1.64   3 1.64   2 1.70   4 1.70   9 1.97  11 1.97

  LATTYP: Found a simple orthorhombic cell.
 ALAT       =     4.0479000000
 B/A-ratio  =     1.4073964278
 C/A-ratio  =     1.5326959658

  Lattice vectors:

 A1 = (   0.0000000000,  -4.0479000000,   0.0000000000)
 A2 = (   5.6970000000,   0.0000000000,   0.0000000000)
 A3 = (   0.0000000000,   0.0000000000,   6.2042000000)

Analysis of symmetry for initial positions (statically):
 Subroutine PRICEL returns:
 Original cell was already a primitive cell.

 Routine SETGRP: Setting up the symmetry group for a
 simple orthorhombic supercell.

 Subroutine GETGRP returns: Found  8 space group operations
 (whereof  4 operations were pure point group operations)
 out of a pool of  8 trial point group operations.

The static configuration has the point symmetry C_2h.
 The point group associated with its full space group is D_2h.

Analysis of symmetry for dynamics (positions and initial velocities):
 Subroutine PRICEL returns:
 Original cell was already a primitive cell.

 Routine SETGRP: Setting up the symmetry group for a
 simple orthorhombic supercell.

 Subroutine GETGRP returns: Found  8 space group operations
 (whereof  4 operations were pure point group operations)
 out of a pool of  8 trial point group operations.

The dynamic configuration has the point symmetry C_2h.
 The point group associated with its full space group is D_2h.

 Subroutine INISYM returns: Found  8 space group operations
 (whereof  4 operations are pure point group operations),
 and found     1 'primitive' translations

                                     Primitive cell

  volume of cell :     143.0744

  direct lattice vectors                    reciprocal lattice vectors
     5.697000000  0.000000000  0.000000000     0.175530981  0.000000000  0.000000000
     0.000000000  4.047900000  0.000000000     0.000000000  0.247041676  0.000000000
     0.000000000  0.000000000  6.204200000     0.000000000  0.000000000  0.161181135

  length of vectors
     5.697000000  4.047900000  6.204200000     0.175530981  0.247041676  0.161181135

  position of ions in fractional coordinates (direct lattice)
     0.521230000  0.500000000  0.637960000
     0.478770000  0.500000000  0.362040000
     0.978770000  0.500000000  0.637960000
     0.021230000  0.500000000  0.362040000
     0.600900000  0.500000000  0.899910000
     0.399100000  0.500000000  0.100090000
     0.899100000  0.500000000  0.899910000
     0.100900000  0.500000000  0.100090000
     0.750000000  0.791710000  0.729730000
     0.250000000  0.208290000  0.270270000
     0.750000000  0.208290000  0.729730000
     0.250000000  0.791710000  0.270270000
     0.250000000  0.500000000  0.523670000
     0.750000000  0.500000000  0.476330000

  ion indices of the primitive-cell ions
   primitive index   ion index
                 1           1
                 2           2
                 3           3
                 4           4
                 5           5
                 6           6
                 7           7
                 8           8
                 9           9
                10          10
                11          11
                12          12
                13          13
                14          14

 KPOINTS: k-points

Automatic generation of k-mesh.
 Grid dimensions read from file:
 generate k-points for:    5    7    5

 Generating k-lattice:

  Cartesian coordinates                     Fractional coordinates (reciprocal lattice)
     0.035106196  0.000000000  0.000000000     0.200000000  0.000000000  0.000000000
     0.000000000  0.035291668  0.000000000     0.000000000  0.142857143  0.000000000
     0.000000000  0.000000000  0.032236227     0.000000000  0.000000000  0.200000000

  Length of vectors
     0.035106196  0.035291668  0.032236227

  Shift w.r.t. Gamma in fractional coordinates (k-lattice)
     0.000000000  0.000000000  0.000000000

 Subroutine IBZKPT returns following result:

 Found     36 irreducible k-points:

 Following reciprocal coordinates:
            Coordinates               Weight
  0.000000  0.000000  0.000000      1.000000
  0.200000  0.000000  0.000000      2.000000
  0.400000  0.000000  0.000000      2.000000
  0.000000  0.142857  0.000000      2.000000
  0.200000  0.142857  0.000000      4.000000
  0.400000  0.142857  0.000000      4.000000
  0.000000  0.285714  0.000000      2.000000
  0.200000  0.285714  0.000000      4.000000
  0.400000  0.285714  0.000000      4.000000
  0.000000  0.428571  0.000000      2.000000
  0.200000  0.428571  0.000000      4.000000
  0.400000  0.428571  0.000000      4.000000
  0.000000  0.000000  0.200000      2.000000
  0.200000  0.000000  0.200000      4.000000
  0.400000  0.000000  0.200000      4.000000
  0.000000  0.142857  0.200000      4.000000
  0.200000  0.142857  0.200000      8.000000
  0.400000  0.142857  0.200000      8.000000
  0.000000  0.285714  0.200000      4.000000
  0.200000  0.285714  0.200000      8.000000
  0.400000  0.285714  0.200000      8.000000
  0.000000  0.428571  0.200000      4.000000
  0.200000  0.428571  0.200000      8.000000
  0.400000  0.428571  0.200000      8.000000
  0.000000  0.000000  0.400000      2.000000
  0.200000  0.000000  0.400000      4.000000
  0.400000  0.000000  0.400000      4.000000
  0.000000  0.142857  0.400000      4.000000
  0.200000  0.142857  0.400000      8.000000
  0.400000  0.142857  0.400000      8.000000
  0.000000  0.285714  0.400000      4.000000
  0.200000  0.285714  0.400000      8.000000
  0.400000  0.285714  0.400000      8.000000
  0.000000  0.428571  0.400000      4.000000
  0.200000  0.428571  0.400000      8.000000
  0.400000  0.428571  0.400000      8.000000

 Following cartesian coordinates:
            Coordinates               Weight
  0.000000  0.000000  0.000000      1.000000
  0.035106  0.000000  0.000000      2.000000
  0.070212  0.000000  0.000000      2.000000
  0.000000  0.035292  0.000000      2.000000
  0.035106  0.035292  0.000000      4.000000
  0.070212  0.035292  0.000000      4.000000
  0.000000  0.070583  0.000000      2.000000
  0.035106  0.070583  0.000000      4.000000
  0.070212  0.070583  0.000000      4.000000
  0.000000  0.105875  0.000000      2.000000
  0.035106  0.105875  0.000000      4.000000
  0.070212  0.105875  0.000000      4.000000
  0.000000  0.000000  0.032236      2.000000
  0.035106  0.000000  0.032236      4.000000
  0.070212  0.000000  0.032236      4.000000
  0.000000  0.035292  0.032236      4.000000
  0.035106  0.035292  0.032236      8.000000
  0.070212  0.035292  0.032236      8.000000
  0.000000  0.070583  0.032236      4.000000
  0.035106  0.070583  0.032236      8.000000
  0.070212  0.070583  0.032236      8.000000
  0.000000  0.105875  0.032236      4.000000
  0.035106  0.105875  0.032236      8.000000
  0.070212  0.105875  0.032236      8.000000
  0.000000  0.000000  0.064472      2.000000
  0.035106  0.000000  0.064472      4.000000
  0.070212  0.000000  0.064472      4.000000
  0.000000  0.035292  0.064472      4.000000
  0.035106  0.035292  0.064472      8.000000
  0.070212  0.035292  0.064472      8.000000
  0.000000  0.070583  0.064472      4.000000
  0.035106  0.070583  0.064472      8.000000
  0.070212  0.070583  0.064472      8.000000
  0.000000  0.105875  0.064472      4.000000
  0.035106  0.105875  0.064472      8.000000
  0.070212  0.105875  0.064472      8.000000

 SYSTEM =  Kpoints
 POSCAR =  o-B14

 Startparameter for this run:
   NWRITE =      2    write-flag & timer
   PREC   = accura    normal or accurate (medium, high low for compatibility)
   ISTART =      0    job   : 0-new  1-cont  2-samecut
   ICHARG =      2    charge: 1-file 2-atom 10-const
   ISPIN  =      1    spin polarized calculation?
   LNONCOLLINEAR =      F non collinear calculations
   LSORBIT =      F    spin-orbit coupling
   INIWAV =      1    electr: 0-lowe 1-rand  2-diag
   LASPH  =      F    aspherical Exc in radial PAW
 Electronic Relaxation 1
   ENCUT  =  480.0 eV  35.28 Ry    5.94 a.u.  10.18  7.23 11.08*2*pi/ulx,y,z
   ENINI  =  480.0     initial cutoff
   ENAUG  =  535.5 eV  augmentation charge cutoff
   NELM   =    100;   NELMIN=  2; NELMDL= -5     # of ELM steps
   EDIFF  = 0.1E-05   stopping-criterion for ELM
   LREAL  =      F    real-space projection
   NLSPLINE    = F    spline interpolate recip. space projectors
   LCOMPAT=      F    compatible to vasp.4.4
   GGA_COMPAT  = T    GGA compatible to vasp.4.4-vasp.4.6
   LMAXPAW     = -100 max onsite density
   LMAXMIX     =    2 max onsite mixed and CHGCAR
   VOSKOWN=      0    Vosko Wilk Nusair interpolation
   ROPT   =    0.00000
 Ionic relaxation
   EDIFFG = -.1E-02   stopping-criterion for IOM
   NSW    =      0    number of steps for IOM
   NBLOCK =      1;   KBLOCK =      1    inner block; outer block
   IBRION =     -1    ionic relax: 0-MD 1-quasi-New 2-CG
   NFREE  =      0    steps in history (QN), initial steepest desc. (CG)
   ISIF   =      2    stress and relaxation
   IWAVPR =     10    prediction:  0-non 1-charg 2-wave 3-comb
   ISYM   =      2    0-nonsym 1-usesym 2-fastsym
   LCORR  =      T    Harris-Foulkes like correction to forces

   POTIM  = 0.5000    time-step for ionic-motion
   TEIN   =    0.0    initial temperature
[...]
   0.47877000  0.50000000  0.36204000
   0.97877000  0.50000000  0.63796000
   0.02123000  0.50000000  0.36204000
   0.60090000  0.50000000  0.89991000
   0.39910000  0.50000000  0.10009000
   0.89910000  0.50000000  0.89991000
   0.10090000  0.50000000  0.10009000
   0.75000000  0.79171000  0.72973000
   0.25000000  0.20829000  0.27027000
   0.75000000  0.20829000  0.72973000
   0.25000000  0.79171000  0.27027000
   0.25000000  0.50000000  0.52367000
   0.75000000  0.50000000  0.47633000

 position of ions in cartesian coordinates  (Angst):
   2.96944731  2.02395000  3.95803143
   2.72755269  2.02395000  2.24616857
   5.57605269  2.02395000  3.95803143
   0.12094731  2.02395000  2.24616857
   3.42332730  2.02395000  5.58322162
   2.27367270  2.02395000  0.62097838
   5.12217270  2.02395000  5.58322162
   0.57482730  2.02395000  0.62097838
   4.27275000  3.20476291  4.52739087
   1.42425000  0.84313709  1.67680913
   4.27275000  0.84313709  4.52739087
   1.42425000  3.20476291  1.67680913
   1.42425000  2.02395000  3.24895341
   4.27275000  2.02395000  2.95524659

 k-point     1 :   0.0000 0.0000 0.0000  plane waves:    3433
 k-point     2 :   0.2000 0.0000 0.0000  plane waves:    3414
 k-point     3 :   0.4000 0.0000 0.0000  plane waves:    3396
 k-point     4 :   0.0000 0.1429 0.0000  plane waves:    3413
 k-point     5 :   0.2000 0.1429 0.0000  plane waves:    3402
 k-point     6 :   0.4000 0.1429 0.0000  plane waves:    3406
 k-point     7 :   0.0000 0.2857 0.0000  plane waves:    3396
 k-point     8 :   0.2000 0.2857 0.0000  plane waves:    3416
 k-point     9 :   0.4000 0.2857 0.0000  plane waves:    3421
 k-point    10 :   0.0000 0.4286 0.0000  plane waves:    3390
 k-point    11 :   0.2000 0.4286 0.0000  plane waves:    3418
 k-point    12 :   0.4000 0.4286 0.0000  plane waves:    3431
 k-point    13 :   0.0000 0.0000 0.2000  plane waves:    3412
 k-point    14 :   0.2000 0.0000 0.2000  plane waves:    3414
 k-point    15 :   0.4000 0.0000 0.2000  plane waves:    3415
 k-point    16 :   0.0000 0.1429 0.2000  plane waves:    3420
 k-point    17 :   0.2000 0.1429 0.2000  plane waves:    3405
 k-point    18 :   0.4000 0.1429 0.2000  plane waves:    3415
 k-point    19 :   0.0000 0.2857 0.2000  plane waves:    3418
 k-point    20 :   0.2000 0.2857 0.2000  plane waves:    3412
 k-point    21 :   0.4000 0.2857 0.2000  plane waves:    3417
 k-point    22 :   0.0000 0.4286 0.2000  plane waves:    3408
 k-point    23 :   0.2000 0.4286 0.2000  plane waves:    3415
 k-point    24 :   0.4000 0.4286 0.2000  plane waves:    3426
 k-point    25 :   0.0000 0.0000 0.4000  plane waves:    3436
 k-point    26 :   0.2000 0.0000 0.4000  plane waves:    3430
 k-point    27 :   0.4000 0.0000 0.4000  plane waves:    3418
 k-point    28 :   0.0000 0.1429 0.4000  plane waves:    3429
 k-point    29 :   0.2000 0.1429 0.4000  plane waves:    3427
 k-point    30 :   0.4000 0.1429 0.4000  plane waves:    3409
 k-point    31 :   0.0000 0.2857 0.4000  plane waves:    3419
 k-point    32 :   0.2000 0.2857 0.4000  plane waves:    3407
 k-point    33 :   0.4000 0.2857 0.4000  plane waves:    3417
 k-point    34 :   0.0000 0.4286 0.4000  plane waves:    3416
 k-point    35 :   0.2000 0.4286 0.4000  plane waves:    3427
 k-point    36 :   0.4000 0.4286 0.4000  plane waves:    3420

 maximum and minimum number of plane-waves per node :      3436     3390

 maximum number of plane-waves:      3436
 maximum index in each direction:
   IXMAX=   10   IYMAX=    7   IZMAX=   11
   IXMIN=  -10   IYMIN=   -7   IZMIN=  -11

 serial   3D FFT for wavefunctions
 parallel 3D FFT for charge:
    minimum data exchange during FFTs selected (reduces bandwidth)

 Broyden mixing: mesh for mixing (old mesh)
   NGX = 21   NGY = 15   NGZ = 23
  (NGX  = 84   NGY  = 60   NGZ  = 96)
  gives a total of   7245 points

 initial charge density was supplied:
 charge density of overlapping atoms calculated
 number of electron      42.0000000 magnetization
 keeping initial charge density in first step

 Maximum index for augmentation-charges          566 (set IRDMAX)

 First call to EWALD:  gamma=   0.339
 Maximum number of real-space cells 3x 3x 2
 Maximum number of reciprocal cells 3x 2x 3

--------------------------------------- Ionic step        1  -------------------------------------------

--------------------------------------- Iteration      1(   1)  ---------------------------------------

 eigenvalue-minimisations  :  3456
 total energy-change (2. order) : 0.5511042E+02  (-0.1766518E+04)
 number of electron      42.0000000 magnetization
 augmentation part       42.0000000 magnetization

 Free energy of the ion-electron system (eV)
  alpha Z        PSCENC =        94.24357992
  Ewald energy   TEWEN  =      -795.76658092
  -Hartree energ DENC   =      -271.33601302
  -exchange      EXHF   =         0.00000000
  -V(xc)+E(xc)   XCENC  =        97.50108136
  PAW double counting   =       608.99811708     -597.02363782
  entropy T*S    EENTRO =        -0.00391602
  eigenvalues    EBANDS =       -77.86833852
  atomic energy  EATOM  =       996.36613177
  Solvation  Ediel_sol  =         0.00000000
  free energy    TOTEN  =        55.11042383 eV

  energy without entropy =       55.11433985  energy(sigma->0) =       55.11238184

[...]

 eigenvalue-minimisations  :  4824
 total energy-change (2. order) :-0.1480300E+03  (-0.1396564E+03)
 number of electron      42.0000000 magnetization
 augmentation part       42.0000000 magnetization

[...]

 Broyden mixing:
  rms(total) = 0.12365E+01    rms(broyden)= 0.12364E+01
  rms(prec ) = 0.22736E+01
  weight for this iteration     100.00

[...]

 eigenvalues of (default mixing * dielectric matrix)
  average eigenvalue GAMMA=   2.0299
  2.0299

[...]

 eigenvalue-minimisations  :  5136
 total energy-change (2. order) : 0.1624736E+01  (-0.3140702E+00)
 number of electron      41.9999999 magnetization
 augmentation part       -0.1693269 magnetization

[...]

 Broyden mixing:
  rms(total) = 0.16808E-03    rms(broyden)= 0.16808E-03
  rms(prec ) = 0.25342E-03
  weight for this iteration     100.00

 eigenvalues of (default mixing * dielectric matrix)
  average eigenvalue GAMMA=   1.8162
  3.3122  2.4964  2.1406  1.9731  1.5277  0.9801  1.0499  1.0499

[...]

--------------------------------------- Iteration      1(  14)  ---------------------------------------

 eigenvalue-minimisations  :  4392
 total energy-change (2. order) :-0.7192234E-06  (-0.3468846E-07)
 number of electron      41.9999999 magnetization
 augmentation part       -0.1744476 magnetization

 Free energy of the ion-electron system (eV)
  alpha Z        PSCENC =        94.24357992
  Ewald energy   TEWEN  =      -795.76658092
  -Hartree energ DENC   =      -348.95945937
  -exchange      EXHF   =         0.00000000
  -V(xc)+E(xc)   XCENC  =       101.57774162
  PAW double counting   =      3721.42104588    -3710.61176665
  entropy T*S    EENTRO =        -0.00288742
  eigenvalues    EBANDS =      -148.88465244
  atomic energy  EATOM  =       996.36613177
  Solvation  Ediel_sol  =         0.00000000
  free energy    TOTEN  =       -90.61684761 eV

  energy without entropy =      -90.61396020  energy(sigma->0) =      -90.61540391

 average (electrostatic) potential at core
  the test charge radii are     0.7672
  (the norm of the test charge is              1.0000)
       1 -29.9741       2 -29.9741       3 -29.9741       4 -29.9741       5 -28.9358
       6 -28.9358       7 -28.9358       8 -28.9358       9 -29.3701      10 -29.3701
      11 -29.3701      12 -29.3701      13 -29.9236      14 -29.9236

 E-fermi :   1.8988     XC(G=0):  -9.4411     alpha+bet :-10.8605

 val. band max:        1.8767757772   @ k =   0.4000   0.4286   0.2000
 cond. band min:       1.9118577405   @ k =   0.2000   0.0000   0.0000
 fundamental gap:      0.0350819633
 Fermi energy:         1.8987839601

 k-point     1 :       0.0000    0.0000    0.0000
  band No.  band energies     occupation
      1     -12.7349      2.00000
      2     -11.5788      2.00000
      3      -8.6610      2.00000
      4      -8.4253      2.00000
      5      -6.0792      2.00000
      6      -5.0580      2.00000
      7      -4.6367      2.00000
      8      -4.3513      2.00000
      9      -3.9723      2.00000
     10      -3.5994      2.00000
     11      -2.4474      2.00000
     12      -2.2700      2.00000
     13      -2.1830      2.00000
     14      -1.0535      2.00000
     15      -0.0363      2.00000
     16       0.0001      2.00000
     17       0.1490      2.00000
     18       0.1736      2.00000
     19       0.5647      2.00000
     20       2.0785      0.00000
     21       2.1284      0.00000
     22       2.2133      0.00000
     23       5.4073      0.00000
     24       5.7999      0.00000
     25       5.8219      0.00000
     26       5.9126      0.00000
     27       6.7809      0.00000
     28       7.6644      0.00000
     29       7.7010      0.00000
     30       8.6333      0.00000
     31       8.7516      0.00000
     32       8.8516      0.00000
     33       9.0422      0.00000
     34      10.0261      0.00000
     35      11.1458      0.00000
     36      11.4021      0.00000
     37      11.7744      0.00000
     38      11.8022      0.00000
     39      11.9000      0.00000
     40      12.3567      0.00000
     41      12.8041      0.00000
     42      13.3912      0.00000
     43      13.5713      0.00000
     44      15.5551      0.00000
     45      15.5669      0.00000
     46      15.9383      0.00000
     47      16.3574      0.00000
     48      16.5907      0.00000

[...]

 k-point    36 :       0.4000    0.4286    0.4000
  band No.  band energies     occupation
      1     -12.1028      2.00000
      2     -11.8233      2.00000
      3      -8.5757      2.00000
      4      -8.3544      2.00000
      5      -5.9483      2.00000
      6      -5.7266      2.00000
      7      -5.2574      2.00000
      8      -4.6512      2.00000
      9      -4.4219      2.00000
     10      -3.5552      2.00000
     11      -2.2299      2.00000
     12      -2.1089      2.00000
     13      -1.9839      2.00000
     14      -1.6205      2.00000
     15      -0.4120      2.00000
     16      -0.1440      2.00000
     17       0.2449      2.00000
     18       0.5073      2.00000
     19       0.5175      2.00000
     20       1.2267      2.00000
     21       1.4820      2.00000
     22       1.7109      2.00000
     23       5.7411      0.00000
     24       6.0823      0.00000
     25       6.8018      0.00000
     26       7.2520      0.00000
     27       7.7436      0.00000
     28       7.8479      0.00000
     29       9.0751      0.00000
     30       9.2632      0.00000
     31       9.7253      0.00000
     32       9.9636      0.00000
     33      10.3958      0.00000
     34      10.8939      0.00000
     35      11.2232      0.00000
     36      11.5789      0.00000
     37      11.6453      0.00000
     38      11.8999      0.00000
     39      12.9719      0.00000
     40      13.1523      0.00000
     41      13.2490      0.00000
     42      13.6965      0.00000
     43      13.9450      0.00000
     44      14.3174      0.00000
     45      14.4485      0.00000
     46      14.8732      0.00000
     47      14.9789      0.00000
     48      15.2134      0.00000

 soft charge-density along one line, spin component           1
         0         1         2         3         4         5         6         7         8         9
 total charge-density along one line

------------------------ aborting loop because EDIFF is reached ----------------------------------------

  FORCE on cell =-STRESS in cart. coord.  units (eV):
  Direction    XX          YY          ZZ          XY          YZ          ZX
  Alpha Z    94.24358    94.24358    94.24358
  Ewald     -90.05465  -558.27634  -147.43815    -0.00000    -0.00000     0.00000
  Hartree   187.04139     5.71096   156.20662    -0.00000    -0.00000    -0.00000
  E(xc)    -134.89929  -135.85994  -134.85928    -0.00000    -0.00000    -0.00000
  Local    -494.10395   126.61975  -406.07380    -0.00000     0.00000     0.00000
  n-local    -8.98941   -10.72210    -9.30308     0.00089    -0.00298     0.00765
  augment     1.31825     1.37063     1.34781    -0.00000     0.00000     0.00000
  Kinetic   446.90358   476.64079   445.28507     0.18163     0.00397    -0.75458
  Fock        0.00000     0.00000     0.00000     0.00000     0.00000     0.00000
  Total       1.45952    -0.27268    -0.59123     0.00000     0.00000    -0.00000
  in kB      16.34401    -3.05354    -6.62074     0.00000     0.00000    -0.00000

 VOLUME and BASIS-vectors are now :
  energy-cutoff  :      480.00
  volume of cell :      143.07
      direct lattice vectors                 reciprocal lattice vectors
     5.697000000  0.000000000  0.000000000     0.175530981  0.000000000  0.000000000
     0.000000000  4.047900000  0.000000000     0.000000000  0.247041676  0.000000000
     0.000000000  0.000000000  6.204200000     0.000000000  0.000000000  0.161181135

  length of vectors
     5.697000000  4.047900000  6.204200000     0.175530981  0.247041676  0.161181135

 FORCES acting on ions
    electron-ion (+dipol)            ewald-force                    non-local-force                 convergence-correction
   0.497E+02 -.312E-12 -.250E+02   -.515E+02 0.211E-14 0.284E+02   0.182E+01 -.633E-19 -.334E+01   -.157E-04 0.284E-14 0.115E-03
   -.497E+02 -.322E-12 0.250E+02   0.515E+02 0.448E-16 -.284E+02   -.182E+01 0.685E-19 0.334E+01   0.157E-04 0.538E-14 -.115E-03
   -.497E+02 -.274E-12 -.250E+02   0.515E+02 0.587E-14 0.284E+02   -.182E+01 0.666E-19 -.334E+01   0.157E-04 0.306E-14 0.115E-03
   0.497E+02 -.675E-14 0.250E+02   -.515E+02 0.181E-14 -.284E+02   0.182E+01 -.660E-19 0.334E+01   -.157E-04 0.555E-14 -.115E-03
   0.313E+02 0.811E-12 -.527E+02   -.341E+02 0.342E-14 0.571E+02   0.192E+01 -.347E-19 -.411E+01   -.662E-04 0.325E-14 -.123E-04
   -.313E+02 0.247E-12 0.527E+02   0.341E+02 0.354E-14 -.571E+02   -.192E+01 -.924E-19 0.411E+01   0.662E-04 0.458E-14 0.123E-04
   -.313E+02 0.845E-12 -.527E+02   0.341E+02 0.299E-14 0.571E+02   -.192E+01 0.393E-19 -.411E+01   0.662E-04 0.296E-14 -.123E-04
   0.313E+02 0.169E-14 0.527E+02   -.341E+02 0.353E-14 -.571E+02   0.192E+01 0.893E-19 0.411E+01   -.662E-04 0.396E-14 0.123E-04
   -.172E-13 -.560E+02 -.155E+02   -.720E-14 0.613E+02 0.166E+02   0.374E-18 -.540E+01 -.112E+01   0.131E-13 -.127E-03 0.562E-04
   -.370E-13 0.560E+02 0.155E+02   0.108E-13 -.613E+02 -.166E+02   -.133E-17 0.540E+01 0.112E+01   0.775E-14 0.127E-03 -.562E-04
   -.183E-13 0.560E+02 -.155E+02   0.393E-14 -.613E+02 0.166E+02   0.117E-17 0.540E+01 -.112E+01   0.129E-13 0.127E-03 0.562E-04
   -.371E-13 -.560E+02 0.155E+02   0.643E-14 0.613E+02 -.166E+02   0.970E-18 -.540E+01 0.112E+01   0.775E-14 -.127E-03 -.562E-04
   -.151E-13 0.192E-13 -.623E+02   0.123E-13 0.532E-14 0.649E+02   0.140E-19 0.168E-18 -.252E+01   -.960E-14 0.356E-14 0.472E-05
   -.156E-13 0.644E-12 0.623E+02   0.173E-13 0.235E-14 -.649E+02   -.143E-19 -.164E-18 0.252E+01   0.735E-14 0.499E-14 -.472E-05
   -.638E-13 0.119E-11 -.153E-11   0.152E-13 0.767E-14 -.284E-13   -.221E-15 0.350E-20 -.888E-15   0.543E-13 0.354E-13 -.473E-13

 POSITION                                       TOTAL-FORCE (eV/Angst)
      2.96945      2.02395      3.95803        -0.005099     -0.000000      0.044657
      2.72755      2.02395      2.24617         0.005099      0.000000     -0.044657
      5.57605      2.02395      3.95803         0.005099      0.000000      0.044657
      0.12095      2.02395      2.24617        -0.005099      0.000000     -0.044657
      3.42333      2.02395      5.58322        -0.847210      0.000000      0.264424
      2.27367      2.02395      0.62098         0.847210     -0.000000     -0.264424
      5.12217      2.02395      5.58322         0.847210      0.000000      0.264424
      0.57483      2.02395      0.62098        -0.847210      0.000000     -0.264424
      4.27275      3.20476      4.52739        -0.000000     -0.132050     -0.076863
      1.42425      0.84314      1.67681        -0.000000      0.132050      0.076863
      4.27275      0.84314      4.52739        -0.000000      0.132050     -0.076863
      1.42425      3.20476      1.67681        -0.000000     -0.132050      0.076863
      1.42425      2.02395      3.24895        -0.000000      0.000000      0.090042
      4.27275      2.02395      2.95525        -0.000000      0.000000     -0.090042
    total drift:                                0.000000      0.000000     -0.000000

  FREE ENERGIE OF THE ION-ELECTRON SYSTEM (eV)
  free  energy   TOTEN  =       -90.61684761 eV

  energy  without entropy=      -90.61396020  energy(sigma->0) =      -90.61540391