 vasp.6.4.3 19Mar24 (build May 31 2024 16:31:43) complex

 executed on             LinuxIFC date 2025.01.08  15:44:20

 INCAR:
   SYSTEM = SC
   ISTART = 0
   ICHARG = 2
   PREC = Accurate
   ENCUT = 600
   LCHARG = .TRUE.
   LWAVE = .TRUE.
   ALGO = Normal
   NELM = 64
   EDIFF = 1E-6
   EDIFFG = -1E-3
   SIGMA = 0.1
   ISMEAR = 0
   SYMPREC = 1E-6
   IBRION = -1
   GGA = PE
   IVDW = 12

 POTCAR:    PAW_PBE B 06Sep2000
 POTCAR:    PAW_PBE B 06Sep2000
   VRHFIN =B: s2p1

   TITEL  = PAW_PBE B 06Sep2000
   POMASS =   10.811; ZVAL   =    3.000    mass and valenz
   ENMAX  =  318.614; ENMIN  =  238.960 eV

  PAW_PBE B 06Sep2000                   :

 POSCAR: o-B14
  positions in direct lattice
 IVDW         = 12
 VDW_S6       =    1.0000
 VDW_S8       =    0.7875
 VDW_A1       =    0.4289
 VDW_A2       =    4.4407
 VDW_RADIUS   =   50.2022 A
 VDW_CNRADIUS =   21.1671 A

 exchange-correlation table for PE
   RHO(1)=    0.500       N(1)  =     2000
   RHO(2)=  100.500       N(2)  =     4000

 ion  position               nearest neighbor table
   1  0.521  0.500  0.638-  14 1.65   5 1.68  13 1.70   2 1.73   9 1.85  11 1.85
   2  0.479  0.500  0.362-  13 1.65   6 1.68  14 1.70   1 1.73  10 1.85  12 1.85
   3  0.979  0.500  0.638-  14 1.65   7 1.68  13 1.70   4 1.73   9 1.85  11 1.85
   4  0.021  0.500  0.362-  13 1.65   8 1.68  14 1.70   3 1.73  10 1.85  12 1.85
   5  0.597  0.500  0.900-   6 1.67   1 1.68   7 1.74   9 1.81  11 1.81
   6  0.403  0.500  0.100-   5 1.67   2 1.68   8 1.74  10 1.81  12 1.81
   7  0.903  0.500  0.900-   8 1.67   3 1.68   5 1.74   9 1.81  11 1.81
   8  0.097  0.500  0.100-   7 1.67   4 1.68   6 1.74  10 1.81  12 1.81
   9  0.750  0.792  0.730-  11 1.69   7 1.81   5 1.81   3 1.85   1 1.85  14 1.97
  10  0.250  0.208  0.270-  12 1.69   8 1.81   6 1.81   4 1.85   2 1.85  13 1.97
  11  0.750  0.208  0.730-   9 1.69   7 1.81   5 1.81   3 1.85   1 1.85  14 1.97
  12  0.250  0.792  0.270-  10 1.69   8 1.81   6 1.81   4 1.85   2 1.85  13 1.97
  13  0.250  0.500  0.524-   2 1.65   4 1.65   3 1.70   1 1.70  10 1.97  12 1.97
  14  0.750  0.500  0.476-   1 1.65   3 1.65   2 1.70   4 1.70   9 1.97  11 1.97

  LATTYP: Found a simple orthorhombic cell.
 ALAT       =     4.0440580961
 B/A-ratio  =     1.4097153303
 C/A-ratio  =     1.5335761871

  Lattice vectors:

 A1 = (   0.0000000000,  -4.0440580961,   0.0000000000)
 A2 = (   5.7009706948,   0.0000000000,   0.0000000000)
 A3 = (   0.0000000000,   0.0000000000,   6.2018711955)

Analysis of symmetry for initial positions (statically):
 Subroutine PRICEL returns:
 Original cell was already a primitive cell.

 Routine SETGRP: Setting up the symmetry group for a
 simple orthorhombic supercell.

 Subroutine GETGRP returns: Found  8 space group operations
 (whereof  4 operations were pure point group operations)
 out of a pool of  8 trial point group operations.

The static configuration has the point symmetry C_2h.
 The point group associated with its full space group is D_2h.

Analysis of symmetry for dynamics (positions and initial velocities):
 Subroutine PRICEL returns:
 Original cell was already a primitive cell.

 Routine SETGRP: Setting up the symmetry group for a
 simple orthorhombic supercell.

 Subroutine GETGRP returns: Found  8 space group operations
 (whereof  4 operations were pure point group operations)
 out of a pool of  8 trial point group operations.

The dynamic configuration has the point symmetry C_2h.
 The point group associated with its full space group is D_2h.

 Subroutine INISYM returns: Found  8 space group operations
 (whereof  4 operations are pure point group operations),
 and found     1 'primitive' translations

                                     Primitive cell

  volume of cell :     142.9845

  direct lattice vectors                    reciprocal lattice vectors
     5.700970695  0.000000000  0.000000000     0.175408725  0.000000000  0.000000000
     0.000000000  4.044058096  0.000000000     0.000000000  0.247276368  0.000000000
     0.000000000  0.000000000  6.201871195     0.000000000  0.000000000  0.161241659

  length of vectors
     5.700970695  4.044058096  6.201871195     0.175408725  0.247276368  0.161241659

  position of ions in fractional coordinates (direct lattice)
     0.521289885  0.500000000  0.637957702
     0.478710115  0.500000000  0.362042298
     0.978710115  0.500000000  0.637957702
     0.021289885  0.500000000  0.362042298
     0.597449662  0.500000000  0.899868316
     0.402550338  0.500000000  0.100131684
     0.902550338  0.500000000  0.899868316
     0.097449662  0.500000000  0.100131684
     0.750000000  0.791564932  0.729579396
     0.250000000  0.208435068  0.270420604
     0.750000000  0.208435068  0.729579396
     0.250000000  0.791564932  0.270420604
     0.250000000  0.500000000  0.523993035
     0.750000000  0.500000000  0.476006965

  ion indices of the primitive-cell ions
   primitive index   ion index
                 1           1
                 2           2
                 3           3
                 4           4
                 5           5
                 6           6
                 7           7
                 8           8
                 9           9
                10          10
                11          11
                12          12
                13          13
                14          14

 KPOINTS: k-points

Automatic generation of k-mesh.
 Grid dimensions read from file:
 generate k-points for:   16   23   15

 Generating k-lattice:

  Cartesian coordinates                     Fractional coordinates (reciprocal lattice)
     0.010963045  0.000000000  0.000000000     0.062500000  0.000000000  0.000000000
     0.000000000  0.010751146  0.000000000     0.000000000  0.043478261  0.000000000
     0.000000000  0.000000000  0.010749444     0.000000000  0.000000000  0.066666667

  Length of vectors
     0.010963045  0.010751146  0.010749444

  Shift w.r.t. Gamma in fractional coordinates (k-lattice)
     0.500000000  0.000000000  0.000000000

 Subroutine IBZKPT returns following result:

 Found    768 irreducible k-points:

 Following reciprocal coordinates:
            Coordinates               Weight
  0.031250  0.000000  0.000000      2.000000
  0.093750  0.000000  0.000000      2.000000
  0.156250  0.000000  0.000000      2.000000
  0.218750  0.000000  0.000000      2.000000
  0.281250  0.000000  0.000000      2.000000
  0.343750  0.000000  0.000000      2.000000
  0.406250  0.000000  0.000000      2.000000
  0.468750  0.000000  0.000000      2.000000
  0.031250  0.043478  0.000000      4.000000
  0.093750  0.043478  0.000000      4.000000
  0.156250  0.043478  0.000000      4.000000
  0.218750  0.043478  0.000000      4.000000
  0.281250  0.043478  0.000000      4.000000
  0.343750  0.043478  0.000000      4.000000
  0.406250  0.043478  0.000000      4.000000
  0.468750  0.043478  0.000000      4.000000
  0.031250  0.086957  0.000000      4.000000
  0.093750  0.086957  0.000000      4.000000
  0.156250  0.086957  0.000000      4.000000
  0.218750  0.086957  0.000000      4.000000
  0.281250  0.086957  0.000000      4.000000
  0.343750  0.086957  0.000000      4.000000
  0.406250  0.086957  0.000000      4.000000
  0.468750  0.086957  0.000000      4.000000
  0.031250  0.130435  0.000000      4.000000
  0.093750  0.130435  0.000000      4.000000
  0.156250  0.130435  0.000000      4.000000
  0.218750  0.130435  0.000000      4.000000
  0.281250  0.130435  0.000000      4.000000
  0.343750  0.130435  0.000000      4.000000
  0.406250  0.130435  0.000000      4.000000
  0.468750  0.130435  0.000000      4.000000
  0.031250  0.173913  0.000000      4.000000
  0.093750  0.173913  0.000000      4.000000
  0.156250  0.173913  0.000000      4.000000
  0.218750  0.173913  0.000000      4.000000
  0.281250  0.173913  0.000000      4.000000
  0.343750  0.173913  0.000000      4.000000
  0.406250  0.173913  0.000000      4.000000
  0.468750  0.173913  0.000000      4.000000
  0.031250  0.217391  0.000000      4.000000
  0.093750  0.217391  0.000000      4.000000
  0.156250  0.217391  0.000000      4.000000
  0.218750  0.217391  0.000000      4.000000
  0.281250  0.217391  0.000000      4.000000
  0.343750  0.217391  0.000000      4.000000
  0.406250  0.217391  0.000000      4.000000
  0.468750  0.217391  0.000000      4.000000
  0.031250  0.260870  0.000000      4.000000
  0.093750  0.260870  0.000000      4.000000
  0.156250  0.260870  0.000000      4.000000
  0.218750  0.260870  0.000000      4.000000
  0.281250  0.260870  0.000000      4.000000
  0.343750  0.260870  0.000000      4.000000
  0.406250  0.260870  0.000000      4.000000
  0.468750  0.260870  0.000000      4.000000
  0.031250  0.304348  0.000000      4.000000
  0.093750  0.304348  0.000000      4.000000
  0.156250  0.304348  0.000000      4.000000
  0.218750  0.304348  0.000000      4.000000
[...]
  0.093750  0.434783  0.466667      8.000000
  0.156250  0.434783  0.466667      8.000000
  0.218750  0.434783  0.466667      8.000000
  0.281250  0.434783  0.466667      8.000000
  0.343750  0.434783  0.466667      8.000000
  0.406250  0.434783  0.466667      8.000000
  0.468750  0.434783  0.466667      8.000000
  0.031250  0.478261  0.466667      8.000000
  0.093750  0.478261  0.466667      8.000000
  0.156250  0.478261  0.466667      8.000000
  0.218750  0.478261  0.466667      8.000000
  0.281250  0.478261  0.466667      8.000000
  0.343750  0.478261  0.466667      8.000000
  0.406250  0.478261  0.466667      8.000000
  0.468750  0.478261  0.466667      8.000000

 Following cartesian coordinates:
            Coordinates               Weight
  0.005482  0.000000  0.000000      2.000000
  0.016445  0.000000  0.000000      2.000000
  0.027408  0.000000  0.000000      2.000000
  0.038371  0.000000  0.000000      2.000000
  0.049334  0.000000  0.000000      2.000000
  0.060297  0.000000  0.000000      2.000000
  0.071260  0.000000  0.000000      2.000000
  0.082223  0.000000  0.000000      2.000000
  0.005482  0.010751  0.000000      4.000000
  0.016445  0.010751  0.000000      4.000000
  0.027408  0.010751  0.000000      4.000000
  0.038371  0.010751  0.000000      4.000000
  0.049334  0.010751  0.000000      4.000000
  0.060297  0.010751  0.000000      4.000000
  0.071260  0.010751  0.000000      4.000000
  0.082223  0.010751  0.000000      4.000000
  0.005482  0.021502  0.000000      4.000000
  0.016445  0.021502  0.000000      4.000000
  0.027408  0.021502  0.000000      4.000000
  0.038371  0.021502  0.000000      4.000000
  0.049334  0.021502  0.000000      4.000000
  0.060297  0.021502  0.000000      4.000000
  0.071260  0.021502  0.000000      4.000000
  0.082223  0.021502  0.000000      4.000000
  0.005482  0.032253  0.000000      4.000000
  0.016445  0.032253  0.000000      4.000000
  0.027408  0.032253  0.000000      4.000000
  0.038371  0.032253  0.000000      4.000000
  0.049334  0.032253  0.000000      4.000000
  0.060297  0.032253  0.000000      4.000000
  0.071260  0.032253  0.000000      4.000000
  0.082223  0.032253  0.000000      4.000000
  0.005482  0.043005  0.000000      4.000000
  0.016445  0.043005  0.000000      4.000000
[...]
 k-point    37 :   0.2812 0.1739 0.0000  plane waves:    4777
 k-point    38 :   0.3438 0.1739 0.0000  plane waves:    4774
 k-point    39 :   0.4063 0.1739 0.0000  plane waves:    4773
 k-point    40 :   0.4687 0.1739 0.0000  plane waves:    4767
 k-point    41 :   0.0312 0.2174 0.0000  plane waves:    4768
 k-point    42 :   0.0938 0.2174 0.0000  plane waves:    4772
 k-point    43 :   0.1562 0.2174 0.0000  plane waves:    4772
 k-point    44 :   0.2188 0.2174 0.0000  plane waves:    4770
 k-point    45 :   0.2812 0.2174 0.0000  plane waves:    4774
 k-point    46 :   0.3438 0.2174 0.0000  plane waves:    4768
 k-point    47 :   0.4063 0.2174 0.0000  plane waves:    4775
 k-point    48 :   0.4687 0.2174 0.0000  plane waves:    4768
 k-point    49 :   0.0312 0.2609 0.0000  plane waves:    4776
 k-point    50 :   0.0938 0.2609 0.0000  plane waves:    4782
 k-point    51 :   0.1562 0.2609 0.0000  plane waves:    4771
 k-point    52 :   0.2188 0.2609 0.0000  plane waves:    4768
 k-point    53 :   0.2812 0.2609 0.0000  plane waves:    4768
 k-point    54 :   0.3438 0.2609 0.0000  plane waves:    4767
 k-point    55 :   0.4063 0.2609 0.0000  plane waves:    4775
 k-point    56 :   0.4687 0.2609 0.0000  plane waves:    4780
 k-point    57 :   0.0312 0.3043 0.0000  plane waves:    4788
 k-point    58 :   0.0938 0.3043 0.0000  plane waves:    4778
 k-point    59 :   0.1562 0.3043 0.0000  plane waves:    4782
 k-point    60 :   0.2188 0.3043 0.0000  plane waves:    4778
[...]
 k-point   754 :   0.0938 0.4348 0.4667  plane waves:    4788
 k-point   755 :   0.1562 0.4348 0.4667  plane waves:    4784
 k-point   756 :   0.2188 0.4348 0.4667  plane waves:    4782
 k-point   757 :   0.2812 0.4348 0.4667  plane waves:    4775
 k-point   758 :   0.3438 0.4348 0.4667  plane waves:    4769
 k-point   759 :   0.4063 0.4348 0.4667  plane waves:    4761
 k-point   760 :   0.4687 0.4348 0.4667  plane waves:    4758
 k-point   761 :   0.0312 0.4783 0.4667  plane waves:    4784
 k-point   762 :   0.0938 0.4783 0.4667  plane waves:    4788
 k-point   763 :   0.1562 0.4783 0.4667  plane waves:    4785
 k-point   764 :   0.2188 0.4783 0.4667  plane waves:    4781
 k-point   765 :   0.2812 0.4783 0.4667  plane waves:    4774
 k-point   766 :   0.3438 0.4783 0.4667  plane waves:    4764
 k-point   767 :   0.4063 0.4783 0.4667  plane waves:    4758
 k-point   768 :   0.4687 0.4783 0.4667  plane waves:    4758

 maximum and minimum number of plane-waves per node :      4805     4735

 maximum number of plane-waves:      4805
 maximum index in each direction:
   IXMAX=   11   IYMAX=    8   IZMAX=   12
   IXMIN=  -11   IYMIN=   -8   IZMIN=  -12

 serial   3D FFT for wavefunctions
 parallel 3D FFT for charge:
    minimum data exchange during FFTs selected (reduces bandwidth)

 Broyden mixing: mesh for mixing (old mesh)
   NGX = 23   NGY = 17   NGZ = 25
  (NGX  = 96   NGY  = 64   NGZ  =100)
  gives a total of   9775 points

 initial charge density was supplied:
 charge density of overlapping atoms calculated
 number of electron      42.0000000 magnetization
 keeping initial charge density in first step

 Maximum index for augmentation-charges          471 (set IRDMAX)

 First call to EWALD:  gamma=   0.339
 Maximum number of real-space cells 3x 3x 2
 Maximum number of reciprocal cells 3x 2x 3

--------------------------------------- Ionic step        1  -------------------------------------------

--------------------------------------- Iteration      1(   1)  ---------------------------------------

 eigenvalue-minimisations  : 73728
 total energy-change (2. order) : 0.7856300E+02  (-0.2001106E+04)
 number of electron      42.0000000 magnetization
 augmentation part       42.0000000 magnetization

 Free energy of the ion-electron system (eV)
  alpha Z        PSCENC =        94.30280740
  Ewald energy   TEWEN  =      -798.79353645
  -Hartree energ DENC   =      -269.52400652
  -exchange      EXHF   =         0.00000000
  -V(xc)+E(xc)   XCENC  =        97.46456534
  PAW double counting   =       608.99811708     -597.02363782
  entropy T*S    EENTRO =        -0.00808074
  eigenvalues    EBANDS =       -53.22764059
  atomic energy  EATOM  =       996.37441054
  Solvation  Ediel_sol  =         0.00000000
  free energy    TOTEN  =        78.56299825 eV

  energy without entropy =       78.57107899  energy(sigma->0) =       78.56703862

[...]

 eigenvalue-minimisations  :101016
 total energy-change (2. order) :-0.1703099E+03  (-0.1594544E+03)
 number of electron      42.0000000 magnetization
 augmentation part       42.0000000 magnetization

[...]

 eigenvalue-minimisations  : 87240
 total energy-change (2. order) :-0.3402713E-01  (-0.3402532E-01)
 number of electron      42.0000000 magnetization
 augmentation part       42.0000000 magnetization

[...]

 Broyden mixing:
  rms(total) = 0.12303E+01    rms(broyden)= 0.12302E+01
  rms(prec ) = 0.22541E+01
  weight for this iteration     100.00

[...]

 eigenvalue-minimisations  :106824
 total energy-change (2. order) : 0.5322649E+01  (-0.3829088E+00)
 number of electron      41.9999999 magnetization
 augmentation part       -0.1533548 magnetization

[...]

 eigenvalues of (default mixing * dielectric matrix)
  average eigenvalue GAMMA=   2.0775
  2.0775

[...]

 eigenvalue-minimisations  :110040
 total energy-change (2. order) : 0.1645609E+01  (-0.3166509E+00)
 number of electron      41.9999999 magnetization
 augmentation part       -0.1727258 magnetization

[...]

 eigenvalue-minimisations  :101544
 total energy-change (2. order) :-0.8945402E-05  (-0.7955461E-06)
 number of electron      41.9999999 magnetization
 augmentation part       -0.1776588 magnetization

 Broyden mixing:
  rms(total) = 0.20419E-03    rms(broyden)= 0.20419E-03
  rms(prec ) = 0.33216E-03
  weight for this iteration     100.00

 eigenvalues of (default mixing * dielectric matrix)
  average eigenvalue GAMMA=   1.7697
  3.2911  2.4977  2.0274  1.8002  1.4921  1.0348  1.0348  0.9791

[...]

--------------------------------------- Iteration      1(  14)  ---------------------------------------

 eigenvalue-minimisations  : 92880
 total energy-change (2. order) :-0.9620724E-06  (-0.6222108E-07)
 number of electron      41.9999999 magnetization
 augmentation part       -0.1776588 magnetization

 Free energy of the ion-electron system (eV)
  alpha Z        PSCENC =        94.30280740
  Ewald energy   TEWEN  =      -798.79353645
  -Hartree energ DENC   =      -346.67697279
  -exchange      EXHF   =         0.00000000
  -V(xc)+E(xc)   XCENC  =       101.54569516
  PAW double counting   =      3724.95663771    -3714.13953283
  entropy T*S    EENTRO =        -0.01383174
  eigenvalues    EBANDS =      -148.19555182
  atomic energy  EATOM  =       996.37441054
  Solvation  Ediel_sol  =         0.00000000
  free energy    TOTEN  =       -90.63987482 eV

  energy without entropy =      -90.62604307  energy(sigma->0) =      -90.63295895

 average (electrostatic) potential at core
  the test charge radii are     0.7672
  (the norm of the test charge is              1.0000)
       1 -29.9658       2 -29.9658       3 -29.9658       4 -29.9658       5 -28.9410
       6 -28.9410       7 -28.9410       8 -28.9410       9 -29.3393      10 -29.3393
      11 -29.3393      12 -29.3393      13 -29.9143      14 -29.9143

 E-fermi :   1.9252     XC(G=0):  -9.4486     alpha+bet :-10.8673

 val. band max:        1.9221258794   @ k =   0.3438   0.1304   0.4667
 cond. band min:       1.9258220185   @ k =   0.4063   0.1304   0.4000
 fundamental gap:      0.0036961391
 Fermi energy:         1.9251929377

 k-point     1 :       0.0312    0.0000    0.0000
  band No.  band energies     occupation
      1     -12.6977      2.00000
      2     -11.5217      2.00000
      3      -8.6596      2.00000
      4      -8.3670      2.00000
      5      -6.0508      2.00000
      6      -5.1244      2.00000
      7      -4.6930      2.00000
      8      -4.3427      2.00000
      9      -3.9309      2.00000
     10      -3.5088      2.00000
     11      -2.3989      2.00000
     12      -2.2177      2.00000
     13      -2.1105      2.00000
     14      -1.0845      2.00000
     15      -0.0156      2.00000
     16       0.0065      2.00000
     17       0.0441      2.00000
     18       0.0903      2.00000
     19       0.6670      2.00000
     20       2.1162      0.00691
     21       2.1494      0.00152
     22       2.2343      0.00001
     23       5.5106      0.00000
     24       5.7280      0.00000
     25       5.7315      0.00000
     26       5.9913      0.00000
     27       6.7210      0.00000
     28       7.5985      0.00000
     29       7.8116      0.00000
     30       8.6298      0.00000
     31       8.8630      0.00000
     32       8.8721      0.00000
     33       9.0526      0.00000
     34      10.0311      0.00000
     35      11.1946      0.00000
     36      11.3847      0.00000
     37      11.5126      0.00000
     38      11.7412      0.00000
     39      11.9691      0.00000
     40      12.3003      0.00000
     41      12.9402      0.00000
     42      13.3856      0.00000
     43      13.5093      0.00000
     44      15.4919      0.00000
     45      15.5365      0.00000
     46      15.9900      0.00000
     47      16.3172      0.00000
     48      16.4394      0.00000

[...]

 k-point   768 :       0.4687    0.4783    0.4667
  band No.  band energies     occupation
      1     -11.9477      2.00000
      2     -11.8587      2.00000
      3      -8.4995      2.00000
      4      -8.4232      2.00000
      5      -5.8909      2.00000
      6      -5.8246      2.00000
      7      -4.7366      2.00000
      8      -4.5439      2.00000
      9      -4.4404      2.00000
     10      -4.1608      2.00000
     11      -2.1981      2.00000
     12      -2.1616      2.00000
     13      -1.9972      2.00000
     14      -1.8165      2.00000
     15      -0.1386      2.00000
     16       0.0053      2.00000
     17       0.4684      2.00000
     18       0.5015      2.00000
     19       0.5073      2.00000
     20       0.7246      2.00000
     21       1.6991      1.99861
     22       1.7505      1.98649
     23       5.8820      0.00000
     24       5.9904      0.00000
     25       6.9612      0.00000
     26       7.3478      0.00000
     27       7.5472      0.00000
     28       7.6260      0.00000
     29       9.4643      0.00000
     30       9.6025      0.00000
     31       9.7867      0.00000
     32       9.8651      0.00000
     33      10.4308      0.00000
     34      10.6930      0.00000
     35      11.2582      0.00000
     36      11.4629      0.00000
     37      11.5384      0.00000
     38      11.5759      0.00000
     39      13.1433      0.00000
     40      13.1967      0.00000
     41      13.8649      0.00000
     42      14.1520      0.00000
     43      14.2383      0.00000
     44      14.2838      0.00000
     45      14.6930      0.00000
     46      14.7186      0.00000
     47      14.8283      0.00000
     48      14.9438      0.00000

 soft charge-density along one line, spin component           1
         0         1         2         3         4         5         6         7         8         9
 total charge-density along one line

------------------------ aborting loop because EDIFF is reached ----------------------------------------

         DFTD3 V3.0 Rev 1
 DF pbe
 parameters
 k1-k3        =   16.0000    1.3333   -4.0000
 Edisp (eV)   -1.96230

 E6    (eV) :    -1.3220
 E8    (eV) :    -0.6403
 % E8        : 32.63

  FORCE on cell =-STRESS in cart. coord.  units (eV):
  Direction    XX          YY          ZZ          XY          YZ          ZX
  Alpha Z    94.30281    94.30281    94.30281
  Ewald     -93.12989  -561.95728  -143.70902    -0.00000    -0.00000     0.00000
  Hartree   186.55373     4.45487   155.66990    -0.00000    -0.00000    -0.00000
  E(xc)    -134.85288  -135.83718  -134.82529     0.00000     0.00000    -0.00000
  Local    -490.94604   130.93680  -408.47670     0.00000     0.00000    -0.00000
  n-local    -8.80897   -11.01835    -9.31577    -0.00330    -0.00407     0.06615
  augment     1.34884     1.39117     1.36914     0.00000     0.00000     0.00000
  Kinetic   445.45233   477.79357   445.03590     0.22774     0.04795    -1.10802
  Fock        0.00000     0.00000     0.00000     0.00000     0.00000     0.00000
  vdW        -2.04354    -2.13134    -2.01285     0.00000     0.00000     0.00000
  Total      -2.12362    -2.06492    -1.96187     0.00000     0.00000     0.00000
  in kB     -23.79565   -23.13800   -21.98328     0.00000     0.00000     0.00000

 VOLUME and BASIS-vectors are now :
  energy-cutoff  :      600.00
  volume of cell :      142.98
      direct lattice vectors                 reciprocal lattice vectors
     5.700970695  0.000000000  0.000000000     0.175408725  0.000000000  0.000000000
     0.000000000  4.044058096  0.000000000     0.000000000  0.247276368  0.000000000
     0.000000000  0.000000000  6.201871195     0.000000000  0.000000000  0.161241659

  length of vectors
     5.700970695  4.044058096  6.201871195     0.175408725  0.247276368  0.161241659

 FORCES acting on ions
    electron-ion (+dipol)            ewald-force                    non-local-force                 convergence-correction
   0.492E+02 0.925E-12 -.247E+02   -.511E+02 0.185E-14 0.280E+02   0.183E+01 0.691E-19 -.333E+01   -.974E-04 0.660E-15 0.981E-04
   -.492E+02 -.226E-12 0.247E+02   0.511E+02 0.687E-16 -.280E+02   -.183E+01 -.508E-19 0.333E+01   0.974E-04 -.820E-15 -.981E-04
   -.492E+02 0.891E-12 -.247E+02   0.511E+02 -.149E-14 0.280E+02   -.183E+01 -.181E-18 -.333E+01   0.974E-04 0.121E-14 0.981E-04
   0.492E+02 0.253E-13 0.247E+02   -.511E+02 -.171E-14 -.280E+02   0.183E+01 0.178E-18 0.333E+01   -.974E-04 -.105E-14 -.981E-04
   0.291E+02 -.254E-12 -.508E+02   -.315E+02 0.387E-14 0.550E+02   0.247E+01 0.855E-19 -.423E+01   -.676E-04 -.487E-16 -.108E-04
   -.291E+02 0.329E-12 0.508E+02   0.315E+02 0.345E-14 -.550E+02   -.247E+01 -.594E-19 0.423E+01   0.676E-04 0.422E-15 0.108E-04
   -.291E+02 -.126E-11 -.508E+02   0.315E+02 0.431E-14 0.550E+02   -.247E+01 -.956E-19 -.423E+01   0.676E-04 -.199E-15 -.108E-04
   0.291E+02 -.246E-13 0.508E+02   -.315E+02 0.344E-14 -.550E+02   0.247E+01 0.723E-19 0.423E+01   -.676E-04 0.420E-15 0.108E-04
   0.288E-13 -.551E+02 -.161E+02   0.938E-14 0.606E+02 0.172E+02   -.246E-17 -.543E+01 -.111E+01   0.210E-13 0.266E-03 0.119E-03
   0.128E-13 0.551E+02 0.161E+02   0.312E-14 -.606E+02 -.172E+02   -.274E-17 0.543E+01 0.111E+01   -.164E-13 -.266E-03 -.119E-03
   0.281E-13 0.551E+02 -.161E+02   0.561E-14 -.606E+02 0.172E+02   0.760E-18 0.543E+01 -.111E+01   0.205E-13 -.266E-03 0.119E-03
   0.139E-13 -.551E+02 0.161E+02   -.935E-15 0.606E+02 -.172E+02   0.645E-18 -.543E+01 0.111E+01   -.160E-13 0.266E-03 -.119E-03
   0.258E-14 0.366E-12 -.622E+02   -.559E-13 0.564E-16 0.647E+02   0.101E-18 0.157E-18 -.258E+01   -.278E-13 -.896E-16 0.109E-03
   0.539E-14 -.923E-13 0.622E+02   -.571E-13 -.472E-15 -.647E+02   -.316E-18 -.154E-18 0.258E+01   0.269E-13 0.130E-15 -.109E-03
   -.124E-11 0.671E-12 0.274E-10   -.389E-13 -.415E-15 -.142E-13   -.448E-15 0.373E-20 0.000E+00   0.126E-13 0.674E-15 -.709E-13

 POSITION                                       TOTAL-FORCE (eV/Angst)
      2.97186      2.02203      3.95653        -0.005436      0.000000     -0.004977
      2.72911      2.02203      2.24534         0.005436      0.000000      0.004977
      5.57960      2.02203      3.95653         0.005436      0.000000     -0.004977
      0.12137      2.02203      2.24534        -0.005436      0.000000      0.004977
      3.40604      2.02203      5.58087        -0.002002      0.000000      0.009525
      2.29493      2.02203      0.62100         0.002002      0.000000     -0.009525
      5.14541      2.02203      5.58087         0.002002      0.000000      0.009525
      0.55556      2.02203      0.62100        -0.002002      0.000000     -0.009525
      4.27573      3.20113      4.52476         0.000000      0.015466     -0.004338
      1.42524      0.84292      1.67711         0.000000     -0.015466      0.004338
      4.27573      0.84292      4.52476         0.000000     -0.015466     -0.004338
      1.42524      3.20113      1.67711         0.000000      0.015466      0.004338
      1.42524      2.02203      3.24974         0.000000      0.000000     -0.000091
      4.27573      2.02203      2.95213         0.000000      0.000000      0.000091
    total drift:                               -0.000000      0.000000      0.000000

  FREE ENERGIE OF THE ION-ELECTRON SYSTEM (eV)
  free  energy   TOTEN  =       -92.60217108 eV

  energy  without entropy=      -92.58833934  energy(sigma->0) =      -92.59525521

 writing wavefunctions