 vasp.6.4.3 19Mar24 (build May 31 2024 16:31:43) complex

 executed on             LinuxIFC date 2024.11.11  15:25:41

 INCAR:
   SYSTEM = PDoS
   ISTART = 1
   ICHARG = 11
   PREC = Accurate
   LORBIT = 11
   NEDOS = 4000
   ENCUT = 600
   LCHARG = .FALSE.
   LWAVE = .FALSE.
   ALGO = Normal
   EDIFF = 1E-6
   EDIFFG = -1E-3
   SIGMA = 0.1
   ISMEAR = 0
   SYMPREC = 1E-6
   NSW = 0
   IBRION = -1
   POTIM = .5

 POTCAR:    PAW_PBE B 06Sep2000
 POTCAR:    PAW_PBE B 06Sep2000
   VRHFIN =B: s2p1

   TITEL  = PAW_PBE B 06Sep2000
   POMASS =   10.811; ZVAL   =    3.000    mass and valenz
   ENMAX  =  318.614; ENMIN  =  238.960 eV

  PAW_PBE B 06Sep2000                   :

 POSCAR: o-B14
  positions in direct lattice

 exchange-correlation table for PE
   RHO(1)=    0.500       N(1)  =     2000
   RHO(2)=  100.500       N(2)  =     4000

 ion  position               nearest neighbor table
   1  0.521  0.500  0.638-  14 1.65   5 1.68  13 1.70   2 1.73   9 1.85  11 1.85
   2  0.479  0.500  0.362-  13 1.65   6 1.68  14 1.70   1 1.73  10 1.85  12 1.85
   3  0.979  0.500  0.638-  14 1.65   7 1.68  13 1.70   4 1.73   9 1.85  11 1.85
   4  0.021  0.500  0.362-  13 1.65   8 1.68  14 1.70   3 1.73  10 1.85  12 1.85
   5  0.597  0.500  0.900-   6 1.67   1 1.68   7 1.74   9 1.81  11 1.81
   6  0.403  0.500  0.100-   5 1.67   2 1.68   8 1.74  10 1.81  12 1.81
   7  0.903  0.500  0.900-   8 1.67   3 1.68   5 1.74   9 1.81  11 1.81
   8  0.097  0.500  0.100-   7 1.67   4 1.68   6 1.74  10 1.81  12 1.81
   9  0.750  0.792  0.730-  11 1.69   7 1.81   5 1.81   3 1.85   1 1.85  14 1.97
  10  0.250  0.208  0.270-  12 1.69   8 1.81   6 1.81   4 1.85   2 1.85  13 1.97
  11  0.750  0.208  0.730-   9 1.69   7 1.81   5 1.81   3 1.85   1 1.85  14 1.97
  12  0.250  0.792  0.270-  10 1.69   8 1.81   6 1.81   4 1.85   2 1.85  13 1.97
  13  0.250  0.500  0.524-   2 1.65   4 1.65   3 1.70   1 1.70  10 1.97  12 1.97
  14  0.750  0.500  0.476-   1 1.65   3 1.65   2 1.70   4 1.70   9 1.97  11 1.97

  LATTYP: Found a simple orthorhombic cell.
 ALAT       =     4.0440580961
 B/A-ratio  =     1.4097153303
 C/A-ratio  =     1.5335761871

  Lattice vectors:

 A1 = (   0.0000000000,  -4.0440580961,   0.0000000000)
 A2 = (   5.7009706948,   0.0000000000,   0.0000000000)
 A3 = (   0.0000000000,   0.0000000000,   6.2018711955)

Analysis of symmetry for initial positions (statically):
 Subroutine PRICEL returns:
 Original cell was already a primitive cell.

 Routine SETGRP: Setting up the symmetry group for a
 simple orthorhombic supercell.

 Subroutine GETGRP returns: Found  8 space group operations
 (whereof  4 operations were pure point group operations)
 out of a pool of  8 trial point group operations.

The static configuration has the point symmetry C_2h.
 The point group associated with its full space group is D_2h.

Analysis of symmetry for dynamics (positions and initial velocities):
 Subroutine PRICEL returns:
 Original cell was already a primitive cell.

 Routine SETGRP: Setting up the symmetry group for a
 simple orthorhombic supercell.

 Subroutine GETGRP returns: Found  8 space group operations
 (whereof  4 operations were pure point group operations)
 out of a pool of  8 trial point group operations.

The dynamic configuration has the point symmetry C_2h.
 The point group associated with its full space group is D_2h.

 Subroutine INISYM returns: Found  8 space group operations
 (whereof  4 operations are pure point group operations),
 and found     1 'primitive' translations

                                     Primitive cell

  volume of cell :     142.9845

  direct lattice vectors                    reciprocal lattice vectors
     5.700970695  0.000000000  0.000000000     0.175408725  0.000000000  0.000000000
     0.000000000  4.044058096  0.000000000     0.000000000  0.247276368  0.000000000
     0.000000000  0.000000000  6.201871195     0.000000000  0.000000000  0.161241659

  length of vectors
     5.700970695  4.044058096  6.201871195     0.175408725  0.247276368  0.161241659

  position of ions in fractional coordinates (direct lattice)
     0.521289885  0.500000000  0.637957702
     0.478710115  0.500000000  0.362042298
     0.978710115  0.500000000  0.637957702
     0.021289885  0.500000000  0.362042298
     0.597449662  0.500000000  0.899868316
     0.402550338  0.500000000  0.100131684
     0.902550338  0.500000000  0.899868316
     0.097449662  0.500000000  0.100131684
     0.750000000  0.791564932  0.729579396
     0.250000000  0.208435068  0.270420604
     0.750000000  0.208435068  0.729579396
     0.250000000  0.791564932  0.270420604
     0.250000000  0.500000000  0.523993035
     0.750000000  0.500000000  0.476006965

  ion indices of the primitive-cell ions
   primitive index   ion index
                 1           1
                 2           2
                 3           3
                 4           4
                 5           5
                 6           6
                 7           7
                 8           8
                 9           9
                10          10
                11          11
                12          12
                13          13
                14          14

 KPOINTS: k-points

Automatic generation of k-mesh.
 Grid dimensions read from file:
 generate k-points for:   10   14    9

 Generating k-lattice:

  Cartesian coordinates                     Fractional coordinates (reciprocal lattice)
     0.017540872  0.000000000  0.000000000     0.100000000  0.000000000  0.000000000
     0.000000000  0.017662598  0.000000000     0.000000000  0.071428571  0.000000000
     0.000000000  0.000000000  0.017915740     0.000000000  0.000000000  0.111111111

  Length of vectors
     0.017540872  0.017662598  0.017915740

  Shift w.r.t. Gamma in fractional coordinates (k-lattice)
     0.500000000  0.500000000  0.000000000

 Subroutine IBZKPT returns following result:

 Found    175 irreducible k-points:

 Following reciprocal coordinates:
            Coordinates               Weight
  0.050000  0.035714  0.000000      4.000000
  0.150000  0.035714  0.000000      4.000000
  0.250000  0.035714  0.000000      4.000000
  0.350000  0.035714  0.000000      4.000000
  0.450000  0.035714  0.000000      4.000000
  0.050000  0.107143  0.000000      4.000000
  0.150000  0.107143  0.000000      4.000000
  0.250000  0.107143  0.000000      4.000000
  0.350000  0.107143  0.000000      4.000000
  0.450000  0.107143  0.000000      4.000000
  0.050000  0.178571  0.000000      4.000000
  0.150000  0.178571  0.000000      4.000000
  0.250000  0.178571  0.000000      4.000000
  0.350000  0.178571  0.000000      4.000000
  0.450000  0.178571  0.000000      4.000000
  0.050000  0.250000  0.000000      4.000000
  0.150000  0.250000  0.000000      4.000000
  0.250000  0.250000  0.000000      4.000000
  0.350000  0.250000  0.000000      4.000000
  0.450000  0.250000  0.000000      4.000000
  0.050000  0.321429  0.000000      4.000000
  0.150000  0.321429  0.000000      4.000000
  0.250000  0.321429  0.000000      4.000000
  0.350000  0.321429  0.000000      4.000000
  0.450000  0.321429  0.000000      4.000000
  0.050000  0.392857  0.000000      4.000000
  0.150000  0.392857  0.000000      4.000000
  0.250000  0.392857  0.000000      4.000000
  0.350000  0.392857  0.000000      4.000000
  0.450000  0.392857  0.000000      4.000000
  0.050000  0.464286  0.000000      4.000000
  0.150000  0.464286  0.000000      4.000000
  0.250000  0.464286  0.000000      4.000000
  0.350000  0.464286  0.000000      4.000000
  0.450000  0.464286  0.000000      4.000000
  0.050000  0.035714  0.111111      8.000000
  0.150000  0.035714  0.111111      8.000000
  0.250000  0.035714  0.111111      8.000000
  0.350000  0.035714  0.111111      8.000000
  0.450000  0.035714  0.111111      8.000000
  0.050000  0.107143  0.111111      8.000000
  0.150000  0.107143  0.111111      8.000000
  0.250000  0.107143  0.111111      8.000000
  0.350000  0.107143  0.111111      8.000000
  0.450000  0.107143  0.111111      8.000000
  0.050000  0.178571  0.111111      8.000000
  0.150000  0.178571  0.111111      8.000000
  0.250000  0.178571  0.111111      8.000000
  0.350000  0.178571  0.111111      8.000000
  0.450000  0.178571  0.111111      8.000000
  0.050000  0.250000  0.111111      8.000000
  0.150000  0.250000  0.111111      8.000000
  0.250000  0.250000  0.111111      8.000000
  0.350000  0.250000  0.111111      8.000000
  0.450000  0.250000  0.111111      8.000000
  0.050000  0.321429  0.111111      8.000000
  0.150000  0.321429  0.111111      8.000000
  0.250000  0.321429  0.111111      8.000000
  0.350000  0.321429  0.111111      8.000000
  0.450000  0.321429  0.111111      8.000000
[...]
  0.050000  0.321429  0.444444      8.000000
  0.150000  0.321429  0.444444      8.000000
  0.250000  0.321429  0.444444      8.000000
  0.350000  0.321429  0.444444      8.000000
  0.450000  0.321429  0.444444      8.000000
  0.050000  0.392857  0.444444      8.000000
  0.150000  0.392857  0.444444      8.000000
  0.250000  0.392857  0.444444      8.000000
  0.350000  0.392857  0.444444      8.000000
  0.450000  0.392857  0.444444      8.000000
  0.050000  0.464286  0.444444      8.000000
  0.150000  0.464286  0.444444      8.000000
  0.250000  0.464286  0.444444      8.000000
  0.350000  0.464286  0.444444      8.000000
  0.450000  0.464286  0.444444      8.000000

 Following cartesian coordinates:
            Coordinates               Weight
  0.008770  0.008831  0.000000      4.000000
  0.026311  0.008831  0.000000      4.000000
  0.043852  0.008831  0.000000      4.000000
  0.061393  0.008831  0.000000      4.000000
  0.078934  0.008831  0.000000      4.000000
  0.008770  0.026494  0.000000      4.000000
  0.026311  0.026494  0.000000      4.000000
  0.043852  0.026494  0.000000      4.000000
  0.061393  0.026494  0.000000      4.000000
  0.078934  0.026494  0.000000      4.000000
  0.008770  0.044156  0.000000      4.000000
  0.026311  0.044156  0.000000      4.000000
  0.043852  0.044156  0.000000      4.000000
  0.061393  0.044156  0.000000      4.000000
  0.078934  0.044156  0.000000      4.000000
  0.008770  0.061819  0.000000      4.000000
  0.026311  0.061819  0.000000      4.000000
  0.043852  0.061819  0.000000      4.000000
  0.061393  0.061819  0.000000      4.000000
  0.078934  0.061819  0.000000      4.000000
  0.008770  0.079482  0.000000      4.000000
  0.026311  0.079482  0.000000      4.000000
  0.043852  0.079482  0.000000      4.000000
  0.061393  0.079482  0.000000      4.000000
  0.078934  0.079482  0.000000      4.000000
  0.008770  0.097144  0.000000      4.000000
  0.026311  0.097144  0.000000      4.000000
  0.043852  0.097144  0.000000      4.000000
  0.061393  0.097144  0.000000      4.000000
  0.078934  0.097144  0.000000      4.000000
  0.008770  0.114807  0.000000      4.000000
  0.026311  0.114807  0.000000      4.000000
  0.043852  0.114807  0.000000      4.000000
  0.061393  0.114807  0.000000      4.000000
  0.078934  0.114807  0.000000      4.000000
  0.008770  0.008831  0.017916      8.000000
  0.026311  0.008831  0.017916      8.000000
  0.043852  0.008831  0.017916      8.000000
[...]
 k-point    30 :   0.4500 0.3929 0.0000  plane waves:    4788
 k-point    31 :   0.0500 0.4643 0.0000  plane waves:    4782
 k-point    32 :   0.1500 0.4643 0.0000  plane waves:    4789
 k-point    33 :   0.2500 0.4643 0.0000  plane waves:    4787
 k-point    34 :   0.3500 0.4643 0.0000  plane waves:    4802
 k-point    35 :   0.4500 0.4643 0.0000  plane waves:    4791
 k-point    36 :   0.0500 0.0357 0.1111  plane waves:    4762
 k-point    37 :   0.1500 0.0357 0.1111  plane waves:    4769
 k-point    38 :   0.2500 0.0357 0.1111  plane waves:    4767
 k-point    39 :   0.3500 0.0357 0.1111  plane waves:    4767
 k-point    40 :   0.4500 0.0357 0.1111  plane waves:    4759
 k-point    41 :   0.0500 0.1071 0.1111  plane waves:    4749
 k-point    42 :   0.1500 0.1071 0.1111  plane waves:    4764
 k-point    43 :   0.2500 0.1071 0.1111  plane waves:    4767
 k-point    44 :   0.3500 0.1071 0.1111  plane waves:    4763
 k-point    45 :   0.4500 0.1071 0.1111  plane waves:    4763
 k-point    46 :   0.0500 0.1786 0.1111  plane waves:    4766
 k-point    47 :   0.1500 0.1786 0.1111  plane waves:    4765
 k-point    48 :   0.2500 0.1786 0.1111  plane waves:    4780
 k-point    49 :   0.3500 0.1786 0.1111  plane waves:    4775
 k-point    50 :   0.4500 0.1786 0.1111  plane waves:    4769
 k-point    51 :   0.0500 0.2500 0.1111  plane waves:    4771
 k-point    52 :   0.1500 0.2500 0.1111  plane waves:    4779
 k-point    53 :   0.2500 0.2500 0.1111  plane waves:    4773
 k-point    54 :   0.3500 0.2500 0.1111  plane waves:    4776
 k-point    55 :   0.4500 0.2500 0.1111  plane waves:    4774
 k-point    56 :   0.0500 0.3214 0.1111  plane waves:    4788
 k-point    57 :   0.1500 0.3214 0.1111  plane waves:    4776
 k-point    58 :   0.2500 0.3214 0.1111  plane waves:    4771
 k-point    59 :   0.3500 0.3214 0.1111  plane waves:    4772
 k-point    60 :   0.4500 0.3214 0.1111  plane waves:    4775
[...]
 k-point   161 :   0.0500 0.3214 0.4444  plane waves:    4785
 k-point   162 :   0.1500 0.3214 0.4444  plane waves:    4788
 k-point   163 :   0.2500 0.3214 0.4444  plane waves:    4774
 k-point   164 :   0.3500 0.3214 0.4444  plane waves:    4767
 k-point   165 :   0.4500 0.3214 0.4444  plane waves:    4769
 k-point   166 :   0.0500 0.3929 0.4444  plane waves:    4793
 k-point   167 :   0.1500 0.3929 0.4444  plane waves:    4781
 k-point   168 :   0.2500 0.3929 0.4444  plane waves:    4778
 k-point   169 :   0.3500 0.3929 0.4444  plane waves:    4767
 k-point   170 :   0.4500 0.3929 0.4444  plane waves:    4763
 k-point   171 :   0.0500 0.4643 0.4444  plane waves:    4782
 k-point   172 :   0.1500 0.4643 0.4444  plane waves:    4783
 k-point   173 :   0.2500 0.4643 0.4444  plane waves:    4779
 k-point   174 :   0.3500 0.4643 0.4444  plane waves:    4765
 k-point   175 :   0.4500 0.4643 0.4444  plane waves:    4757

 maximum and minimum number of plane-waves per node :      4802     4742

 maximum number of plane-waves:      4802
 maximum index in each direction:
   IXMAX=   11   IYMAX=    8   IZMAX=   12
   IXMIN=  -11   IYMIN=   -8   IZMIN=  -12

 serial   3D FFT for wavefunctions
 parallel 3D FFT for charge:
    minimum data exchange during FFTs selected (reduces bandwidth)

 initial charge density was supplied:
 number of electron      41.9999999 magnetization
 keeping initial charge density in first step

 Maximum index for augmentation-charges          471 (set IRDMAX)

 First call to EWALD:  gamma=   0.339
 Maximum number of real-space cells 3x 3x 2
 Maximum number of reciprocal cells 3x 2x 3

--------------------------------------- Ionic step        1  -------------------------------------------

--------------------------------------- Iteration      1(   1)  ---------------------------------------

 eigenvalue-minimisations  : 16800
 total energy-change (2. order) : 0.7239082E+02  (-0.1964868E+04)
 number of electron      41.9999999 magnetization
 augmentation part       41.9999999 magnetization

 Free energy of the ion-electron system (eV)
  alpha Z        PSCENC =        94.30280740
  Ewald energy   TEWEN  =      -798.79353645
  -Hartree energ DENC   =      -346.67325013
  -exchange      EXHF   =         0.00000000
  -V(xc)+E(xc)   XCENC  =       101.54544795
  PAW double counting   =      3725.05048951    -3714.23337423
  entropy T*S    EENTRO =        -0.00842357
  eigenvalues    EBANDS =        14.82624526
  atomic energy  EATOM  =       996.37441054
  Solvation  Ediel_sol  =         0.00000000
  free energy    TOTEN  =        72.39081629 eV

  energy without entropy =       72.39923986  energy(sigma->0) =       72.39502807

[...]

 eigenvalue-minimisations  : 23208
 total energy-change (2. order) :-0.1577117E+03  (-0.1468060E+03)
 number of electron      41.9999999 magnetization
 augmentation part       41.9999999 magnetization

[...]

--------------------------------------- Iteration      1(   7)  ---------------------------------------

 eigenvalue-minimisations  : 24360
 total energy-change (2. order) :-0.3539344E-07  (-0.3542486E-07)
 number of electron      41.9999999 magnetization
 augmentation part       41.9999999 magnetization

 Free energy of the ion-electron system (eV)
  alpha Z        PSCENC =        94.30280740
  Ewald energy   TEWEN  =      -798.79353645
  -Hartree energ DENC   =      -346.67325013
  -exchange      EXHF   =         0.00000000
  -V(xc)+E(xc)   XCENC  =       101.54544795
  PAW double counting   =      3725.05048951    -3714.23337423
  entropy T*S    EENTRO =        -0.01288226
  eigenvalues    EBANDS =      -148.20541698
  atomic energy  EATOM  =       996.37441054
  Solvation  Ediel_sol  =         0.00000000
  free energy    TOTEN  =       -90.64530464 eV

  energy without entropy =      -90.63242239  energy(sigma->0) =      -90.63886352

 average (electrostatic) potential at core
  the test charge radii are     0.7672
  (the norm of the test charge is              1.0000)
       1 -29.9630       2 -29.9630       3 -29.9630       4 -29.9630       5 -28.9397
       6 -28.9397       7 -28.9397       8 -28.9397       9 -29.3446      10 -29.3446
      11 -29.3446      12 -29.3446      13 -29.9130      14 -29.9130

 E-fermi :   1.9192     XC(G=0):  -9.4486     alpha+bet :-10.8673

 val. band max:        1.9122915797   @ k =   0.4500   0.0357   0.2222
 cond. band min:       1.9280817306   @ k =   0.2500   0.1786   0.0000
 fundamental gap:      0.0157901509
 Fermi energy:         1.9191518855

 k-point     1 :       0.0500    0.0357    0.0000
  band No.  band energies     occupation
      1     -12.6913      2.00000
      2     -11.5255      2.00000
      3      -8.6544      2.00000
      4      -8.3626      2.00000
      5      -6.0395      2.00000
      6      -5.1625      2.00000
      7      -4.7049      2.00000
      8      -4.2976      2.00000
      9      -4.0008      2.00000
     10      -3.4728      2.00000
     11      -2.5515      2.00000
     12      -2.3092      2.00000
     13      -1.7822      2.00000
     14      -1.1073      2.00000
     15      -0.0807      2.00000
     16       0.0066      2.00000
     17       0.0462      2.00000
     18       0.1006      2.00000
     19       0.6762      2.00000
     20       2.0743      0.02818
     21       2.0871      0.01755
     22       2.2499      0.00000
     23       5.5497      0.00000
     24       5.6864      0.00000
     25       5.7746      0.00000
     26       5.9913      0.00000
     27       6.7527      0.00000
     28       7.5692      0.00000
     29       7.9036      0.00000
     30       8.5272      0.00000
     31       8.9012      0.00000
     32       8.9443      0.00000
     33       9.0636      0.00000
     34      10.1142      0.00000
     35      11.2336      0.00000
     36      11.3406      0.00000
     37      11.5209      0.00000
     38      11.6743      0.00000
     39      12.0003      0.00000
     40      12.3428      0.00000
     41      12.9698      0.00000
     42      13.4073      0.00000
     43      13.4332      0.00000
     44      15.3956      0.00000
     45      15.5292      0.00000
     46      16.0439      0.00000
     47      16.3158      0.00000
     48      16.3345      0.00000

[...]

 k-point   175 :       0.4500    0.4643    0.4444
  band No.  band energies     occupation
      1     -11.9771      2.00000
      2     -11.8344      2.00000
      3      -8.5147      2.00000
      4      -8.3927      2.00000
      5      -5.9046      2.00000
      6      -5.7968      2.00000
      7      -4.8974      2.00000
      8      -4.5600      2.00000
      9      -4.4464      2.00000
     10      -3.9866      2.00000
     11      -2.1874      2.00000
     12      -2.1226      2.00000
     13      -2.0477      2.00000
     14      -1.7564      2.00000
     15      -0.2120      2.00000
     16      -0.0114      2.00000
     17       0.4221      2.00000
     18       0.4753      2.00000
     19       0.5116      2.00000
     20       0.8429      2.00000
     21       1.6670      1.99964
     22       1.7603      1.97534
     23       5.8490      0.00000
     24       6.0208      0.00000
     25       6.8765      0.00000
     26       7.4698      0.00000
     27       7.5126      0.00000
     28       7.6759      0.00000
     29       9.3734      0.00000
     30       9.5154      0.00000
     31       9.7560      0.00000
     32       9.8711      0.00000
     33      10.4003      0.00000
     34      10.8002      0.00000
     35      11.2197      0.00000
     36      11.5245      0.00000
     37      11.5618      0.00000
     38      11.6409      0.00000
     39      13.1043      0.00000
     40      13.2009      0.00000
     41      13.7155      0.00000
     42      14.0356      0.00000
     43      14.1833      0.00000
     44      14.2854      0.00000
     45      14.6258      0.00000
     46      14.6874      0.00000
     47      14.8497      0.00000
     48      15.0227      0.00000

 soft charge-density along one line, spin component           1
         0         1         2         3         4         5         6         7         8         9
 total charge-density along one line

------------------------ aborting loop because EDIFF is reached ----------------------------------------

 total charge

# of ion       s       p       d       tot
    1        0.709   1.369   0.000   2.078
    2        0.709   1.369   0.000   2.078
    3        0.709   1.369   0.000   2.078
    4        0.709   1.369   0.000   2.078
    5        0.716   1.299   0.000   2.015
    6        0.716   1.299   0.000   2.015
    7        0.716   1.299   0.000   2.015
    8        0.716   1.299   0.000   2.015
    9        0.702   1.230   0.000   1.931
   10        0.702   1.230   0.000   1.931
   11        0.702   1.230   0.000   1.931
   12        0.702   1.230   0.000   1.931
   13        0.716   1.378   0.000   2.094
   14        0.716   1.378   0.000   2.094
tot          9.936  18.348   0.000  28.284

  FORCE on cell =-STRESS in cart. coord.  units (eV):
  Direction    XX          YY          ZZ          XY          YZ          ZX
  Alpha Z    94.30281    94.30281    94.30281
  Ewald     -93.12989  -561.95728  -143.70902    -0.00000    -0.00000     0.00000
  Hartree   186.60464     4.34954   155.72015    -0.00000    -0.00000    -0.00000
  E(xc)    -134.85299  -135.83535  -134.82530     0.00000    -0.00000     0.00000
  Local    -491.05528   131.16818  -408.59520     0.00000     0.00000    -0.00000
  n-local    -8.84467   -10.97541    -9.32974    -0.00740    -0.00436     0.06550
  augment     1.34809     1.39191     1.36848    -0.00000    -0.00000    -0.00000
  Kinetic   445.62307   477.53513   445.10545     0.25145     0.05338    -1.09767
  Fock        0.00000     0.00000     0.00000     0.00000     0.00000     0.00000
  Total      -0.00422    -0.02046     0.03763     0.00000     0.00000    -0.00000
  in kB      -0.04728    -0.22931     0.42161     0.00000     0.00000    -0.00000

 VOLUME and BASIS-vectors are now :
  energy-cutoff  :      600.00
  volume of cell :      142.98
      direct lattice vectors                 reciprocal lattice vectors
     5.700970695  0.000000000  0.000000000     0.175408725  0.000000000  0.000000000
     0.000000000  4.044058096  0.000000000     0.000000000  0.247276368  0.000000000
     0.000000000  0.000000000  6.201871195     0.000000000  0.000000000  0.161241659

  length of vectors
     5.700970695  4.044058096  6.201871195     0.175408725  0.247276368  0.161241659

 FORCES acting on ions
    electron-ion (+dipol)            ewald-force                    non-local-force                 convergence-correction
   0.492E+02 0.890E-12 -.247E+02   -.511E+02 0.185E-14 0.280E+02   0.184E+01 0.805E-19 -.334E+01   -.203E-03 -.158E-12 0.171E-03
   -.492E+02 -.198E-12 0.247E+02   0.511E+02 0.687E-16 -.280E+02   -.184E+01 -.122E-18 0.334E+01   0.203E-03 -.774E-13 -.171E-03
   -.492E+02 0.867E-12 -.247E+02   0.511E+02 -.149E-14 0.280E+02   -.184E+01 0.167E-18 -.334E+01   0.203E-03 0.801E-13 0.171E-03
   0.492E+02 0.514E-13 0.247E+02   -.511E+02 -.171E-14 -.280E+02   0.184E+01 0.501E-20 0.334E+01   -.203E-03 -.921E-13 -.171E-03
   0.291E+02 -.307E-12 -.508E+02   -.315E+02 0.387E-14 0.550E+02   0.247E+01 -.591E-19 -.423E+01   -.140E-03 -.271E-12 0.462E-03
   -.291E+02 0.377E-12 0.508E+02   0.315E+02 0.345E-14 -.550E+02   -.247E+01 0.855E-19 0.423E+01   0.140E-03 -.229E-12 -.462E-03
   -.291E+02 -.130E-11 -.508E+02   0.315E+02 0.431E-14 0.550E+02   -.247E+01 0.551E-19 -.423E+01   0.140E-03 -.175E-12 0.462E-03
   0.291E+02 0.138E-13 0.508E+02   -.315E+02 0.344E-14 -.550E+02   0.247E+01 -.855E-19 0.423E+01   -.140E-03 -.258E-12 -.462E-03
   0.286E-13 -.552E+02 -.161E+02   0.938E-14 0.606E+02 0.172E+02   0.111E-17 -.543E+01 -.111E+01   0.276E-13 0.433E-04 0.384E-03
   0.121E-13 0.552E+02 0.161E+02   0.312E-14 -.606E+02 -.172E+02   -.315E-18 0.543E+01 0.111E+01   0.224E-12 -.433E-04 -.384E-03
   0.282E-13 0.552E+02 -.161E+02   0.561E-14 -.606E+02 0.172E+02   0.106E-17 0.543E+01 -.111E+01   -.159E-12 -.433E-04 0.384E-03
   0.118E-13 -.552E+02 0.161E+02   -.935E-15 0.606E+02 -.172E+02   -.142E-17 -.543E+01 0.111E+01   0.263E-12 0.433E-04 -.384E-03
   -.290E-15 0.392E-12 -.622E+02   -.559E-13 0.564E-16 0.647E+02   0.136E-18 -.135E-18 -.257E+01   0.328E-12 -.446E-13 0.282E-03
   0.727E-14 -.122E-12 0.622E+02   -.571E-13 -.472E-15 -.647E+02   0.140E-18 0.131E-18 0.257E+01   -.540E-12 0.124E-14 -.282E-03
   -.121E-11 0.617E-12 0.273E-10   -.389E-13 -.415E-15 -.142E-13   -.887E-15 -.440E-20 0.444E-15   0.695E-12 -.108E-11 0.212E-11

 POSITION                                       TOTAL-FORCE (eV/Angst)
      2.97186      2.02203      3.95653        -0.001766     -0.000000      0.003960
      2.72911      2.02203      2.24534         0.001766     -0.000000     -0.003960
      5.57960      2.02203      3.95653         0.001766      0.000000      0.003960
      0.12137      2.02203      2.24534        -0.001766     -0.000000     -0.003960
      3.40604      2.02203      5.58087        -0.000283     -0.000000      0.002248
      2.29493      2.02203      0.62100         0.000283      0.000000     -0.002248
      5.14541      2.02203      5.58087         0.000283      0.000000      0.002248
      0.55556      2.02203      0.62100        -0.000283     -0.000000     -0.002248
      4.27573      3.20113      4.52476        -0.000000     -0.013095     -0.001064
      1.42524      0.84292      1.67711        -0.000000      0.013095      0.001064
      4.27573      0.84292      4.52476         0.000000      0.013095     -0.001064
      1.42524      3.20113      1.67711        -0.000000     -0.013095      0.001064
      1.42524      2.02203      3.24974        -0.000000     -0.000000      0.000591
      4.27573      2.02203      2.95213         0.000000     -0.000000     -0.000591
    total drift:                               -0.000000     -0.000000      0.000000

  FREE ENERGIE OF THE ION-ELECTRON SYSTEM (eV)
  free  energy   TOTEN  =       -90.64530464 eV

  energy  without entropy=      -90.63242239  energy(sigma->0) =      -90.63886352

 total charge

# of ion       s       p       d       tot
    1        0.709   1.369   0.000   2.078
    2        0.709   1.369   0.000   2.078
    3        0.709   1.369   0.000   2.078
    4        0.709   1.369   0.000   2.078
    5        0.716   1.299   0.000   2.015
    6        0.716   1.299   0.000   2.015
    7        0.716   1.299   0.000   2.015
    8        0.716   1.299   0.000   2.015
    9        0.702   1.230   0.000   1.931
   10        0.702   1.230   0.000   1.931
   11        0.702   1.230   0.000   1.931
   12        0.702   1.230   0.000   1.931
   13        0.716   1.378   0.000   2.094
   14        0.716   1.378   0.000   2.094
tot          9.936  18.348   0.000  28.284