 vasp.6.4.3 19Mar24 (build May 31 2024 16:31:43) complex

 executed on             LinuxIFC date 2024.11.21  10:59:46

 INCAR:
   SYSTEM = SC
   ISTART = 0
   ICHARG = 2
   PREC = Accurate
   ENCUT = 600
   LCHARG = .TRUE.
   LWAVE = .TRUE.
   ALGO = Normal
   NELM = 64
   EDIFF = 1E-6
   EDIFFG = -1E-3
   SIGMA = 0.1
   ISMEAR = 0
   SYMPREC = 1E-6
   IBRION = -1
   GGA = PE
   IVDW = 12

 POTCAR:    PAW_PBE B 06Sep2000
 POTCAR:    PAW_PBE B 06Sep2000
   VRHFIN =B: s2p1

   TITEL  = PAW_PBE B 06Sep2000
   POMASS =   10.811; ZVAL   =    3.000    mass and valenz
   ENMAX  =  318.614; ENMIN  =  238.960 eV

  PAW_PBE B 06Sep2000                   :

 POSCAR: o-B14
  positions in direct lattice
 IVDW         = 12
 VDW_S6       =    1.0000
 VDW_S8       =    0.7875
 VDW_A1       =    0.4289
 VDW_A2       =    4.4407
 VDW_RADIUS   =   50.2022 A
 VDW_CNRADIUS =   21.1671 A

 exchange-correlation table for PE
   RHO(1)=    0.500       N(1)  =     2000
   RHO(2)=  100.500       N(2)  =     4000

 ion  position               nearest neighbor table
   1  0.638  0.500  0.521-  13 1.31  14 1.37   5 1.65   2 1.72   3 1.85  11 1.99   9 1.99
   2  0.362  0.500  0.479-  14 1.31  13 1.37   6 1.65   1 1.72   4 1.85  10 1.99  12 1.99
   3  0.638  0.500  0.979-  13 1.31  14 1.37   7 1.65   4 1.72   1 1.85  11 1.99   9 1.99
   4  0.362  0.500  0.021-  14 1.31  13 1.37   8 1.65   3 1.72   2 1.85  10 1.99  12 1.99
   5  0.900  0.500  0.597-   7 1.23   6 1.47   1 1.65  11 2.06   9 2.06
   6  0.100  0.500  0.403-   8 1.23   5 1.47   2 1.65  10 2.06  12 2.06
   7  0.900  0.500  0.903-   5 1.23   8 1.47   3 1.65  11 2.06   9 2.06
   8  0.100  0.500  0.097-   6 1.23   7 1.47   4 1.65  10 2.06  12 2.06
   9  0.730  0.792  0.750-   1 1.99   3 1.99   5 2.06   7 2.06
  10  0.270  0.208  0.250-   2 1.99   4 1.99   6 2.06   8 2.06
  11  0.730  0.208  0.750-   1 1.99   3 1.99   5 2.06   7 2.06
  12  0.270  0.792  0.250-   2 1.99   4 1.99   6 2.06   8 2.06
  13  0.524  0.500  0.250-   1 1.31   3 1.31   2 1.37   4 1.37  14 2.04  14 2.04
  14  0.476  0.500  0.750-   2 1.31   4 1.31   3 1.37   1 1.37  13 2.04  13 2.04

  LATTYP: Found a simple orthorhombic cell.
 ALAT       =     4.0440580961
 B/A-ratio  =     1.4097153303
 C/A-ratio  =     1.5335761871

  Lattice vectors:

 A1 = (   0.0000000000,   0.0000000000,  -4.0440580961)
 A2 = (   0.0000000000,   5.7009706948,   0.0000000000)
 A3 = (   6.2018711955,   0.0000000000,   0.0000000000)

Analysis of symmetry for initial positions (statically):
 Subroutine PRICEL returns:
 Original cell was already a primitive cell.

 Routine SETGRP: Setting up the symmetry group for a
 simple orthorhombic supercell.

 Subroutine GETGRP returns: Found  8 space group operations
 (whereof  4 operations were pure point group operations)
 out of a pool of  8 trial point group operations.

The static configuration has the point symmetry C_2h.
 The point group associated with its full space group is D_2h.

Analysis of symmetry for dynamics (positions and initial velocities):
 Subroutine PRICEL returns:
 Original cell was already a primitive cell.

 Routine SETGRP: Setting up the symmetry group for a
 simple orthorhombic supercell.

 Subroutine GETGRP returns: Found  8 space group operations
 (whereof  4 operations were pure point group operations)
 out of a pool of  8 trial point group operations.

The dynamic configuration has the point symmetry C_2h.
 The point group associated with its full space group is D_2h.

 Subroutine INISYM returns: Found  8 space group operations
 (whereof  4 operations are pure point group operations),
 and found     1 'primitive' translations

                                     Primitive cell

  volume of cell :     142.9845

  direct lattice vectors                    reciprocal lattice vectors
     6.201871195  0.000000000  0.000000000     0.161241659  0.000000000  0.000000000
     0.000000000  5.700970695  0.000000000     0.000000000  0.175408725  0.000000000
     0.000000000  0.000000000  4.044058096     0.000000000  0.000000000  0.247276368

  length of vectors
     6.201871195  5.700970695  4.044058096     0.161241659  0.175408725  0.247276368

  position of ions in fractional coordinates (direct lattice)
     0.637957702  0.500000000  0.521289885
     0.362042298  0.500000000  0.478710115
     0.637957702  0.500000000  0.978710115
     0.362042298  0.500000000  0.021289885
     0.899868316  0.500000000  0.597449662
     0.100131684  0.500000000  0.402550338
     0.899868316  0.500000000  0.902550338
     0.100131684  0.500000000  0.097449662
     0.729579396  0.791564932  0.750000000
     0.270420604  0.208435068  0.250000000
     0.729579396  0.208435068  0.750000000
     0.270420604  0.791564932  0.250000000
     0.523993035  0.500000000  0.250000000
     0.476006965  0.500000000  0.750000000

  ion indices of the primitive-cell ions
   primitive index   ion index
                 1           1
                 2           2
                 3           3
                 4           4
                 5           5
                 6           6
                 7           7
                 8           8
                 9           9
                10          10
                11          11
                12          12
                13          13
                14          14

 KPOINTS: k-points

Automatic generation of k-mesh.
 Grid dimensions read from file:
 generate k-points for:   10   14    9

 Generating k-lattice:

  Cartesian coordinates                     Fractional coordinates (reciprocal lattice)
     0.016124166  0.000000000  0.000000000     0.100000000  0.000000000  0.000000000
     0.000000000  0.012529195  0.000000000     0.000000000  0.071428571  0.000000000
     0.000000000  0.000000000  0.027475152     0.000000000  0.000000000  0.111111111

  Length of vectors
     0.016124166  0.012529195  0.027475152

  Shift w.r.t. Gamma in fractional coordinates (k-lattice)
     0.500000000  0.500000000  0.000000000

 Subroutine IBZKPT returns following result:

 Found    175 irreducible k-points:

 Following reciprocal coordinates:
            Coordinates               Weight
  0.050000  0.035714  0.000000      4.000000
  0.150000  0.035714  0.000000      4.000000
  0.250000  0.035714  0.000000      4.000000
  0.350000  0.035714  0.000000      4.000000
  0.450000  0.035714  0.000000      4.000000
  0.050000  0.107143  0.000000      4.000000
  0.150000  0.107143  0.000000      4.000000
  0.250000  0.107143  0.000000      4.000000
  0.350000  0.107143  0.000000      4.000000
  0.450000  0.107143  0.000000      4.000000
  0.050000  0.178571  0.000000      4.000000
  0.150000  0.178571  0.000000      4.000000
  0.250000  0.178571  0.000000      4.000000
  0.350000  0.178571  0.000000      4.000000
  0.450000  0.178571  0.000000      4.000000
  0.050000  0.250000  0.000000      4.000000
  0.150000  0.250000  0.000000      4.000000
  0.250000  0.250000  0.000000      4.000000
  0.350000  0.250000  0.000000      4.000000
  0.450000  0.250000  0.000000      4.000000
  0.050000  0.321429  0.000000      4.000000
  0.150000  0.321429  0.000000      4.000000
  0.250000  0.321429  0.000000      4.000000
  0.350000  0.321429  0.000000      4.000000
  0.450000  0.321429  0.000000      4.000000
  0.050000  0.392857  0.000000      4.000000
  0.150000  0.392857  0.000000      4.000000
  0.250000  0.392857  0.000000      4.000000
  0.350000  0.392857  0.000000      4.000000
  0.450000  0.392857  0.000000      4.000000
  0.050000  0.464286  0.000000      4.000000
  0.150000  0.464286  0.000000      4.000000
  0.250000  0.464286  0.000000      4.000000
  0.350000  0.464286  0.000000      4.000000
  0.450000  0.464286  0.000000      4.000000
  0.050000  0.035714  0.111111      8.000000
  0.150000  0.035714  0.111111      8.000000
  0.250000  0.035714  0.111111      8.000000
  0.350000  0.035714  0.111111      8.000000
  0.450000  0.035714  0.111111      8.000000
  0.050000  0.107143  0.111111      8.000000
  0.150000  0.107143  0.111111      8.000000
  0.250000  0.107143  0.111111      8.000000
  0.350000  0.107143  0.111111      8.000000
  0.450000  0.107143  0.111111      8.000000
  0.050000  0.178571  0.111111      8.000000
  0.150000  0.178571  0.111111      8.000000
  0.250000  0.178571  0.111111      8.000000
  0.350000  0.178571  0.111111      8.000000
  0.450000  0.178571  0.111111      8.000000
  0.050000  0.250000  0.111111      8.000000
  0.150000  0.250000  0.111111      8.000000
  0.250000  0.250000  0.111111      8.000000
  0.350000  0.250000  0.111111      8.000000
  0.450000  0.250000  0.111111      8.000000
  0.050000  0.321429  0.111111      8.000000
  0.150000  0.321429  0.111111      8.000000
  0.250000  0.321429  0.111111      8.000000
  0.350000  0.321429  0.111111      8.000000
  0.450000  0.321429  0.111111      8.000000
[...]
  0.050000  0.321429  0.444444      8.000000
  0.150000  0.321429  0.444444      8.000000
  0.250000  0.321429  0.444444      8.000000
  0.350000  0.321429  0.444444      8.000000
  0.450000  0.321429  0.444444      8.000000
  0.050000  0.392857  0.444444      8.000000
  0.150000  0.392857  0.444444      8.000000
  0.250000  0.392857  0.444444      8.000000
  0.350000  0.392857  0.444444      8.000000
  0.450000  0.392857  0.444444      8.000000
  0.050000  0.464286  0.444444      8.000000
  0.150000  0.464286  0.444444      8.000000
  0.250000  0.464286  0.444444      8.000000
  0.350000  0.464286  0.444444      8.000000
  0.450000  0.464286  0.444444      8.000000

 Following cartesian coordinates:
            Coordinates               Weight
  0.008062  0.006265  0.000000      4.000000
  0.024186  0.006265  0.000000      4.000000
  0.040310  0.006265  0.000000      4.000000
  0.056435  0.006265  0.000000      4.000000
  0.072559  0.006265  0.000000      4.000000
  0.008062  0.018794  0.000000      4.000000
  0.024186  0.018794  0.000000      4.000000
  0.040310  0.018794  0.000000      4.000000
  0.056435  0.018794  0.000000      4.000000
  0.072559  0.018794  0.000000      4.000000
  0.008062  0.031323  0.000000      4.000000
  0.024186  0.031323  0.000000      4.000000
  0.040310  0.031323  0.000000      4.000000
  0.056435  0.031323  0.000000      4.000000
  0.072559  0.031323  0.000000      4.000000
  0.008062  0.043852  0.000000      4.000000
  0.024186  0.043852  0.000000      4.000000
  0.040310  0.043852  0.000000      4.000000
  0.056435  0.043852  0.000000      4.000000
  0.072559  0.043852  0.000000      4.000000
  0.008062  0.056381  0.000000      4.000000
  0.024186  0.056381  0.000000      4.000000
  0.040310  0.056381  0.000000      4.000000
  0.056435  0.056381  0.000000      4.000000
  0.072559  0.056381  0.000000      4.000000
  0.008062  0.068911  0.000000      4.000000
  0.024186  0.068911  0.000000      4.000000
  0.040310  0.068911  0.000000      4.000000
  0.056435  0.068911  0.000000      4.000000
  0.072559  0.068911  0.000000      4.000000
  0.008062  0.081440  0.000000      4.000000
  0.024186  0.081440  0.000000      4.000000
  0.040310  0.081440  0.000000      4.000000
  0.056435  0.081440  0.000000      4.000000
  0.072559  0.081440  0.000000      4.000000
[...]
 k-point    28 :   0.2500 0.3929 0.0000  plane waves:    4768
 k-point    29 :   0.3500 0.3929 0.0000  plane waves:    4761
 k-point    30 :   0.4500 0.3929 0.0000  plane waves:    4767
 k-point    31 :   0.0500 0.4643 0.0000  plane waves:    4764
 k-point    32 :   0.1500 0.4643 0.0000  plane waves:    4756
 k-point    33 :   0.2500 0.4643 0.0000  plane waves:    4762
 k-point    34 :   0.3500 0.4643 0.0000  plane waves:    4781
 k-point    35 :   0.4500 0.4643 0.0000  plane waves:    4774
 k-point    36 :   0.0500 0.0357 0.1111  plane waves:    4756
 k-point    37 :   0.1500 0.0357 0.1111  plane waves:    4754
 k-point    38 :   0.2500 0.0357 0.1111  plane waves:    4762
 k-point    39 :   0.3500 0.0357 0.1111  plane waves:    4769
 k-point    40 :   0.4500 0.0357 0.1111  plane waves:    4765
 k-point    41 :   0.0500 0.1071 0.1111  plane waves:    4763
 k-point    42 :   0.1500 0.1071 0.1111  plane waves:    4762
 k-point    43 :   0.2500 0.1071 0.1111  plane waves:    4770
 k-point    44 :   0.3500 0.1071 0.1111  plane waves:    4759
 k-point    45 :   0.4500 0.1071 0.1111  plane waves:    4761
 k-point    46 :   0.0500 0.1786 0.1111  plane waves:    4767
 k-point    47 :   0.1500 0.1786 0.1111  plane waves:    4768
 k-point    48 :   0.2500 0.1786 0.1111  plane waves:    4762
 k-point    49 :   0.3500 0.1786 0.1111  plane waves:    4755
 k-point    50 :   0.4500 0.1786 0.1111  plane waves:    4758
 k-point    51 :   0.0500 0.2500 0.1111  plane waves:    4773
 k-point    52 :   0.1500 0.2500 0.1111  plane waves:    4775
 k-point    53 :   0.2500 0.2500 0.1111  plane waves:    4768
 k-point    54 :   0.3500 0.2500 0.1111  plane waves:    4765
 k-point    55 :   0.4500 0.2500 0.1111  plane waves:    4763
 k-point    56 :   0.0500 0.3214 0.1111  plane waves:    4760
 k-point    57 :   0.1500 0.3214 0.1111  plane waves:    4769
 k-point    58 :   0.2500 0.3214 0.1111  plane waves:    4774
 k-point    59 :   0.3500 0.3214 0.1111  plane waves:    4764
 k-point    60 :   0.4500 0.3214 0.1111  plane waves:    4763
[...]
 k-point   161 :   0.0500 0.3214 0.4444  plane waves:    4792
 k-point   162 :   0.1500 0.3214 0.4444  plane waves:    4774
 k-point   163 :   0.2500 0.3214 0.4444  plane waves:    4766
 k-point   164 :   0.3500 0.3214 0.4444  plane waves:    4769
 k-point   165 :   0.4500 0.3214 0.4444  plane waves:    4773
 k-point   166 :   0.0500 0.3929 0.4444  plane waves:    4784
 k-point   167 :   0.1500 0.3929 0.4444  plane waves:    4773
 k-point   168 :   0.2500 0.3929 0.4444  plane waves:    4768
 k-point   169 :   0.3500 0.3929 0.4444  plane waves:    4768
 k-point   170 :   0.4500 0.3929 0.4444  plane waves:    4761
 k-point   171 :   0.0500 0.4643 0.4444  plane waves:    4791
 k-point   172 :   0.1500 0.4643 0.4444  plane waves:    4770
 k-point   173 :   0.2500 0.4643 0.4444  plane waves:    4765
 k-point   174 :   0.3500 0.4643 0.4444  plane waves:    4759
 k-point   175 :   0.4500 0.4643 0.4444  plane waves:    4757

 maximum and minimum number of plane-waves per node :      4794     4735

 maximum number of plane-waves:      4794
 maximum index in each direction:
   IXMAX=   12   IYMAX=   11   IZMAX=    8
   IXMIN=  -12   IYMIN=  -11   IZMIN=   -8

 serial   3D FFT for wavefunctions
 parallel 3D FFT for charge:
    minimum data exchange during FFTs selected (reduces bandwidth)

 Broyden mixing: mesh for mixing (old mesh)
   NGX = 25   NGY = 23   NGZ = 17
  (NGX  =100   NGY  = 96   NGZ  = 64)
  gives a total of   9775 points

 initial charge density was supplied:
 charge density of overlapping atoms calculated
 number of electron      42.0000000 magnetization
 keeping initial charge density in first step

 Maximum index for augmentation-charges          549 (set IRDMAX)

 First call to EWALD:  gamma=   0.339
 Maximum number of real-space cells 2x 3x 3
 Maximum number of reciprocal cells 3x 3x 2

--------------------------------------- Ionic step        1  -------------------------------------------

--------------------------------------- Iteration      1(   1)  ---------------------------------------

 eigenvalue-minimisations  : 16800
 total energy-change (2. order) : 0.1329798E+03  (-0.2056466E+04)
 number of electron      42.0000000 magnetization
 augmentation part       42.0000000 magnetization

 Free energy of the ion-electron system (eV)
  alpha Z        PSCENC =        94.30280740
  Ewald energy   TEWEN  =      -447.83269088
  -Hartree energ DENC   =      -520.53836427
  -exchange      EXHF   =         0.00000000
  -V(xc)+E(xc)   XCENC  =       100.30805199
  PAW double counting   =       608.99811708     -597.02363782
  entropy T*S    EENTRO =        -0.01339785
  eigenvalues    EBANDS =      -101.59548029
  atomic energy  EATOM  =       996.37441054
  Solvation  Ediel_sol  =         0.00000000
  free energy    TOTEN  =       132.97981589 eV

  energy without entropy =      132.99321375  energy(sigma->0) =      132.98651482

[...]

 eigenvalue-minimisations  : 24336
 total energy-change (2. order) :-0.2125343E+03  (-0.1902455E+03)
 number of electron      42.0000000 magnetization
 augmentation part       42.0000000 magnetization

[...]

 Broyden mixing:
  rms(total) = 0.24854E+01    rms(broyden)= 0.24854E+01
  rms(prec ) = 0.59761E+01
  weight for this iteration     100.00

[...]

 eigenvalues of (default mixing * dielectric matrix)
  average eigenvalue GAMMA=   0.9627
  0.9627

[...]

 eigenvalue-minimisations  : 21024
 total energy-change (2. order) : 0.5637533E-05  (-0.4326022E-05)
 number of electron      42.0000000 magnetization
 augmentation part       -0.2618007 magnetization

 Broyden mixing:
  rms(total) = 0.17419E-03    rms(broyden)= 0.17417E-03
  rms(prec ) = 0.36794E-03
  weight for this iteration     100.00

 eigenvalues of (default mixing * dielectric matrix)
  average eigenvalue GAMMA=   1.5480
  3.4553  2.5252  2.2051  1.5443  1.5443  0.4851  1.0014  1.0014  0.9162  0.8014

[...]

--------------------------------------- Iteration      1(  16)  ---------------------------------------

 eigenvalue-minimisations  : 22128
 total energy-change (2. order) :-0.4095627E-06  (-0.1298205E-06)
 number of electron      42.0000000 magnetization
 augmentation part       -0.2618007 magnetization

 Free energy of the ion-electron system (eV)
  alpha Z        PSCENC =        94.30280740
  Ewald energy   TEWEN  =      -447.83269088
  -Hartree energ DENC   =      -651.40567390
  -exchange      EXHF   =         0.00000000
  -V(xc)+E(xc)   XCENC  =       104.99753342
  PAW double counting   =      5412.36240532    -5402.59796954
  entropy T*S    EENTRO =        -0.02742151
  eigenvalues    EBANDS =      -158.28259265
  atomic energy  EATOM  =       996.37441054
  Solvation  Ediel_sol  =         0.00000000
  free energy    TOTEN  =       -52.10919179 eV

  energy without entropy =      -52.08177028  energy(sigma->0) =      -52.09548104

 average (electrostatic) potential at core
  the test charge radii are     0.7672
  (the norm of the test charge is              1.0000)
       1 -30.0528       2 -30.0528       3 -30.0528       4 -30.0528       5 -28.6036
       6 -28.6036       7 -28.6036       8 -28.6036       9 -31.4768      10 -31.4768
      11 -31.4768      12 -31.4768      13 -30.0943      14 -30.0943

 E-fermi :   2.4972     XC(G=0):  -9.3476     alpha+bet :-10.8673

 val. band max:        2.4968074266   @ k =   0.2500   0.3929   0.3333
 cond. band min:       2.4993445594   @ k =   0.3500   0.3214   0.2222
 fundamental gap:      0.0025371329
 Fermi energy:         2.4972240748

 k-point     1 :       0.0500    0.0357    0.0000
  band No.  band energies     occupation
      1     -14.2881      2.00000
      2     -11.3016      2.00000
      3     -10.0659      2.00000
      4      -9.8230      2.00000
      5      -7.3477      2.00000
      6      -6.5184      2.00000
      7      -5.8716      2.00000
      8      -4.4660      2.00000
      9      -4.2193      2.00000
     10      -3.4367      2.00000
     11      -2.6774      2.00000
     12      -2.5431      2.00000
     13      -2.5210      2.00000
     14      -1.6159      2.00000
     15      -1.3662      2.00000
     16      -0.2089      2.00000
     17       0.7262      2.00000
     18       1.7189      2.00000
     19       2.1178      2.00000
     20       2.3960      1.84789
     21       3.0227      0.00000
     22       3.2842      0.00000
     23       4.1135      0.00000
     24       4.2259      0.00000
     25       4.4623      0.00000
     26       5.7792      0.00000
     27       5.7798      0.00000
     28       6.0772      0.00000
     29       6.3724      0.00000
     30       6.9780      0.00000
     31       7.0333      0.00000
     32       7.3798      0.00000
     33       7.6856      0.00000
     34       8.4852      0.00000
     35      10.5763      0.00000
     36      10.7892      0.00000
     37      10.8955      0.00000
     38      11.3167      0.00000
     39      11.9533      0.00000
     40      12.1901      0.00000
     41      12.5946      0.00000
     42      12.6864      0.00000
     43      13.4593      0.00000
     44      14.1641      0.00000
     45      14.2131      0.00000
     46      14.6152      0.00000
     47      14.9579      0.00000
     48      15.4121      0.00000

[...]

 k-point   175 :       0.4500    0.4643    0.4444
  band No.  band energies     occupation
      1     -13.3202      2.00000
      2     -12.8586      2.00000
      3     -10.0331      2.00000
      4      -9.6485      2.00000
      5      -6.2124      2.00000
      6      -5.8082      2.00000
      7      -5.7608      2.00000
      8      -5.5474      2.00000
      9      -4.7735      2.00000
     10      -4.5053      2.00000
     11      -2.5353      2.00000
     12      -2.3894      2.00000
     13      -1.6500      2.00000
     14      -0.5479      2.00000
     15      -0.3505      2.00000
     16      -0.2633      2.00000
     17       1.1511      2.00000
     18       1.5848      2.00000
     19       1.7528      2.00000
     20       1.9144      2.00000
     21       1.9572      2.00000
     22       2.0490      2.00000
     23       2.8044      0.00001
     24       3.1170      0.00000
     25       4.4933      0.00000
     26       4.6696      0.00000
     27       5.3361      0.00000
     28       5.4066      0.00000
     29       6.6789      0.00000
     30       6.7645      0.00000
     31       6.9879      0.00000
     32       7.0321      0.00000
     33      10.5673      0.00000
     34      10.7629      0.00000
     35      11.0694      0.00000
     36      11.2073      0.00000
     37      11.4237      0.00000
     38      11.8145      0.00000
     39      12.2806      0.00000
     40      12.3350      0.00000
     41      12.7668      0.00000
     42      12.9781      0.00000
     43      13.3166      0.00000
     44      13.4816      0.00000
     45      14.6618      0.00000
     46      14.7892      0.00000
     47      15.0063      0.00000
     48      15.1875      0.00000

 soft charge-density along one line, spin component           1
         0         1         2         3         4         5         6         7         8         9
 total charge-density along one line

------------------------ aborting loop because EDIFF is reached ----------------------------------------

         DFTD3 V3.0 Rev 1
 DF pbe
 parameters
 k1-k3        =   16.0000    1.3333   -4.0000
 Edisp (eV)   -2.20372

 E6    (eV) :    -1.4726
 E8    (eV) :    -0.7311
 % E8        : 33.17

  FORCE on cell =-STRESS in cart. coord.  units (eV):
  Direction    XX          YY          ZZ          XY          YZ          ZX
  Alpha Z    94.30281    94.30281    94.30281
  Ewald     355.22312 -1270.28380   467.22556     0.00000     0.00000    -0.00000
  Hartree   534.44199  -455.24076   572.20189     0.00000    -0.00000    -0.00000
  E(xc)    -139.63217  -139.40842  -140.18180     0.00000    -0.00000    -0.00000
  Local   -1261.75306  1262.52546 -1370.19233    -0.00000     0.00000     0.00000
  n-local    -4.25213    -3.38025    -8.30998     0.08490     0.03929     0.46163
  augment     1.98601     2.17723     1.99786     0.00000     0.00000     0.00000
  Kinetic   498.42553   460.31555   533.23513    -0.56052     0.62409    -3.63557
  Fock        0.00000     0.00000     0.00000     0.00000     0.00000     0.00000
  vdW        -0.12274     5.52557    -0.92661    -0.00000    -0.00000     0.00000
  Total      78.61938   -43.46662   149.35252     0.00000     0.00000    -0.00000
  in kB     880.95005  -487.05440  1673.53268     0.00000     0.00000    -0.00000

 VOLUME and BASIS-vectors are now :
  energy-cutoff  :      600.00
  volume of cell :      142.98
      direct lattice vectors                 reciprocal lattice vectors
     6.201871195  0.000000000  0.000000000     0.161241659  0.000000000  0.000000000
     0.000000000  5.700970695  0.000000000     0.000000000  0.175408725  0.000000000
     0.000000000  0.000000000  4.044058096     0.000000000  0.000000000  0.247276368

  length of vectors
     6.201871195  5.700970695  4.044058096     0.161241659  0.175408725  0.247276368

 FORCES acting on ions
    electron-ion (+dipol)            ewald-force                    non-local-force                 convergence-correction
   -.623E+02 0.560E-11 0.221E+02   0.744E+02 0.337E-13 -.219E+02   0.901E+00 0.254E-17 0.523E+01   -.272E-03 -.131E-13 0.245E-03
   0.623E+02 0.578E-11 -.221E+02   -.744E+02 0.356E-13 0.219E+02   -.901E+00 -.227E-17 -.523E+01   0.272E-03 -.908E-14 -.245E-03
   -.623E+02 0.543E-11 -.221E+02   0.744E+02 0.364E-13 0.219E+02   0.901E+00 0.160E-17 -.523E+01   -.272E-03 -.137E-13 -.245E-03
   0.623E+02 0.565E-11 0.221E+02   -.744E+02 0.355E-13 -.219E+02   -.901E+00 0.162E-17 0.523E+01   0.272E-03 -.885E-14 0.245E-03
   -.219E+02 0.736E-11 0.400E+02   0.250E+02 0.320E-13 -.532E+02   -.501E+01 -.119E-17 -.481E+01   -.340E-03 -.138E-13 0.179E-03
   0.219E+02 0.578E-11 -.400E+02   -.250E+02 0.320E-13 0.532E+02   0.501E+01 0.103E-17 0.481E+01   0.340E-03 -.944E-14 -.179E-03
   -.219E+02 0.745E-11 -.400E+02   0.250E+02 0.320E-13 0.532E+02   -.501E+01 0.260E-18 0.481E+01   -.340E-03 -.142E-13 -.179E-03
   0.219E+02 0.582E-11 0.400E+02   -.250E+02 0.320E-13 -.532E+02   0.501E+01 -.452E-18 -.481E+01   0.340E-03 -.977E-14 0.179E-03
   -.211E+02 -.121E+03 0.437E-08   0.207E+02 0.122E+03 -.884E-15   0.116E+01 -.424E+01 -.356E-17   -.996E-04 0.117E-04 0.215E-14
   0.211E+02 0.121E+03 -.437E-08   -.207E+02 -.122E+03 0.517E-15   -.116E+01 0.424E+01 -.497E-17   0.996E-04 -.117E-04 0.388E-15
   -.211E+02 0.121E+03 0.711E-09   0.207E+02 -.122E+03 -.374E-15   0.116E+01 0.424E+01 -.651E-17   -.996E-04 -.117E-04 0.269E-14
   0.211E+02 -.121E+03 -.710E-09   -.207E+02 0.122E+03 -.139E-14   -.116E+01 -.424E+01 0.656E-17   0.996E-04 0.117E-04 0.260E-15
   -.303E+02 0.664E-11 0.181E-07   0.329E+02 0.249E-13 -.695E-14   -.465E+01 -.140E-17 -.885E-17   -.251E-03 -.111E-13 -.749E-14
   0.303E+02 0.917E-11 -.181E-07   -.329E+02 0.248E-13 -.104E-13   0.465E+01 -.146E-18 0.249E-17   0.251E-03 -.107E-13 0.691E-14
   0.719E-11 0.649E-10 -.419E-12   0.711E-14 -.708E-14 0.184E-14   -.888E-15 -.154E-17 -.148E-16   0.273E-14 -.101E-12 0.871E-14

 POSITION                                       TOTAL-FORCE (eV/Angst)
      3.95653      2.85049      2.10813        12.838579      0.000000      5.169012
      2.24534      2.85049      1.93593       -12.838579     -0.000000     -5.169012
      3.95653      2.85049      3.95796        12.838579      0.000000     -5.169012
      2.24534      2.85049      0.08610       -12.838579     -0.000000      5.169012
      5.58087      2.85049      2.41612        -1.627368      0.000000    -18.179447
      0.62100      2.85049      1.62794         1.627368      0.000000     18.179447
      5.58087      2.85049      3.64997        -1.627368      0.000000     18.179447
      0.62100      2.85049      0.39409         1.627368     -0.000000    -18.179447
      4.52476      4.51269      3.03304         0.774291     -2.154112      0.000000
      1.67711      1.18828      1.01101        -0.774291      2.154112      0.000000
      4.52476      1.18828      3.03304         0.774291      2.154112      0.000000
      1.67711      4.51269      1.01101        -0.774291     -2.154112      0.000000
      3.24974      2.85049      1.01101        -1.858942      0.000000      0.000000
      2.95213      2.85049      3.03304         1.858942     -0.000000      0.000000
    total drift:                                0.000000      0.000000     -0.000000

  FREE ENERGIE OF THE ION-ELECTRON SYSTEM (eV)
  free  energy   TOTEN  =       -54.31291195 eV

  energy  without entropy=      -54.28549044  energy(sigma->0) =      -54.29920119

 writing wavefunctions