 vasp.6.4.3 19Mar24 (build May 31 2024 16:31:43) complex

 executed on             LinuxIFC date 2024.10.29  15:51:20

 INCAR:
   SYSTEM = Kpoints
   ISTART = 0
   ICHARG = 2
   PREC = Accurate
   ENCUT = 450
   LCHARG = .FALSE.
   LWAVE = .FALSE.
   ALGO = Normal
   NELM = 100
   EDIFF = 1E-6
   EDIFFG = -1E-3
   SIGMA = 0.05
   ISMEAR = 0
   ISPIN = 1
   NSW = 0
   IBRION = -1
   POTIM = .5
   ISIF = 2
   GGA = PE

 POTCAR:    PAW_PBE B 06Sep2000
 POTCAR:    PAW_PBE B 06Sep2000
   VRHFIN =B: s2p1

   TITEL  = PAW_PBE B 06Sep2000
   POMASS =   10.811; ZVAL   =    3.000    mass and valenz
   ENMAX  =  318.614; ENMIN  =  238.960 eV

  PAW_PBE B 06Sep2000                   :

 POSCAR: o-B14
  positions in direct lattice

 exchange-correlation table for PE
   RHO(1)=    0.500       N(1)  =     2000
   RHO(2)=  100.500       N(2)  =     4000

 ion  position               nearest neighbor table
   1  0.521  0.500  0.638-  14 1.64   5 1.69  13 1.70   2 1.73   9 1.85  11 1.85
   2  0.479  0.500  0.362-  13 1.64   6 1.69  14 1.70   1 1.73  10 1.85  12 1.85
   3  0.979  0.500  0.638-  14 1.64   7 1.69  13 1.70   4 1.73   9 1.85  11 1.85
   4  0.021  0.500  0.362-  13 1.64   8 1.69  14 1.70   3 1.73  10 1.85  12 1.85
   5  0.601  0.500  0.900-   1 1.69   6 1.69   7 1.70   9 1.80  11 1.80
   6  0.399  0.500  0.100-   2 1.69   5 1.69   8 1.70  10 1.80  12 1.80
   7  0.899  0.500  0.900-   3 1.69   8 1.69   5 1.70   9 1.80  11 1.80
   8  0.101  0.500  0.100-   4 1.69   7 1.69   6 1.70  10 1.80  12 1.80
   9  0.750  0.792  0.730-  11 1.69   7 1.80   5 1.80   3 1.85   1 1.85  14 1.97
  10  0.250  0.208  0.270-  12 1.69   8 1.80   6 1.80   4 1.85   2 1.85  13 1.97
  11  0.750  0.208  0.730-   9 1.69   7 1.80   5 1.80   3 1.85   1 1.85  14 1.97
  12  0.250  0.792  0.270-  10 1.69   8 1.80   6 1.80   4 1.85   2 1.85  13 1.97
  13  0.250  0.500  0.524-   2 1.64   4 1.64   3 1.70   1 1.70  10 1.97  12 1.97
  14  0.750  0.500  0.476-   1 1.64   3 1.64   2 1.70   4 1.70   9 1.97  11 1.97

  LATTYP: Found a simple orthorhombic cell.
 ALAT       =     4.0479000000
 B/A-ratio  =     1.4073964278
 C/A-ratio  =     1.5326959658

  Lattice vectors:

 A1 = (   0.0000000000,  -4.0479000000,   0.0000000000)
 A2 = (   5.6970000000,   0.0000000000,   0.0000000000)
 A3 = (   0.0000000000,   0.0000000000,   6.2042000000)

Analysis of symmetry for initial positions (statically):
 Subroutine PRICEL returns:
 Original cell was already a primitive cell.

 Routine SETGRP: Setting up the symmetry group for a
 simple orthorhombic supercell.

 Subroutine GETGRP returns: Found  8 space group operations
 (whereof  4 operations were pure point group operations)
 out of a pool of  8 trial point group operations.

The static configuration has the point symmetry C_2h.
 The point group associated with its full space group is D_2h.

Analysis of symmetry for dynamics (positions and initial velocities):
 Subroutine PRICEL returns:
 Original cell was already a primitive cell.

 Routine SETGRP: Setting up the symmetry group for a
 simple orthorhombic supercell.

 Subroutine GETGRP returns: Found  8 space group operations
 (whereof  4 operations were pure point group operations)
 out of a pool of  8 trial point group operations.

The dynamic configuration has the point symmetry C_2h.
 The point group associated with its full space group is D_2h.

 Subroutine INISYM returns: Found  8 space group operations
 (whereof  4 operations are pure point group operations),
 and found     1 'primitive' translations

                                     Primitive cell

  volume of cell :     143.0744

  direct lattice vectors                    reciprocal lattice vectors
     5.697000000  0.000000000  0.000000000     0.175530981  0.000000000  0.000000000
     0.000000000  4.047900000  0.000000000     0.000000000  0.247041676  0.000000000
     0.000000000  0.000000000  6.204200000     0.000000000  0.000000000  0.161181135

  length of vectors
     5.697000000  4.047900000  6.204200000     0.175530981  0.247041676  0.161181135

  position of ions in fractional coordinates (direct lattice)
     0.521230000  0.500000000  0.637960000
     0.478770000  0.500000000  0.362040000
     0.978770000  0.500000000  0.637960000
     0.021230000  0.500000000  0.362040000
     0.600900000  0.500000000  0.899910000
     0.399100000  0.500000000  0.100090000
     0.899100000  0.500000000  0.899910000
     0.100900000  0.500000000  0.100090000
     0.750000000  0.791710000  0.729730000
     0.250000000  0.208290000  0.270270000
     0.750000000  0.208290000  0.729730000
     0.250000000  0.791710000  0.270270000
     0.250000000  0.500000000  0.523670000
     0.750000000  0.500000000  0.476330000

  ion indices of the primitive-cell ions
   primitive index   ion index
                 1           1
                 2           2
                 3           3
                 4           4
                 5           5
                 6           6
                 7           7
                 8           8
                 9           9
                10          10
                11          11
                12          12
                13          13
                14          14

 KPOINTS: k-points

Automatic generation of k-mesh.
 Grid dimensions read from file:
 generate k-points for:   16   23   15

 Generating k-lattice:

  Cartesian coordinates                     Fractional coordinates (reciprocal lattice)
     0.010970686  0.000000000  0.000000000     0.062500000  0.000000000  0.000000000
     0.000000000  0.010740942  0.000000000     0.000000000  0.043478261  0.000000000
     0.000000000  0.000000000  0.010745409     0.000000000  0.000000000  0.066666667

  Length of vectors
     0.010970686  0.010740942  0.010745409

  Shift w.r.t. Gamma in fractional coordinates (k-lattice)
     0.500000000  0.000000000  0.000000000

 Subroutine IBZKPT returns following result:

 Found    768 irreducible k-points:

 Following reciprocal coordinates:
            Coordinates               Weight
  0.031250  0.000000  0.000000      2.000000
  0.093750  0.000000  0.000000      2.000000
  0.156250  0.000000  0.000000      2.000000
  0.218750  0.000000  0.000000      2.000000
  0.281250  0.000000  0.000000      2.000000
  0.343750  0.000000  0.000000      2.000000
  0.406250  0.000000  0.000000      2.000000
  0.468750  0.000000  0.000000      2.000000
  0.031250  0.043478  0.000000      4.000000
  0.093750  0.043478  0.000000      4.000000
  0.156250  0.043478  0.000000      4.000000
  0.218750  0.043478  0.000000      4.000000
  0.281250  0.043478  0.000000      4.000000
  0.343750  0.043478  0.000000      4.000000
  0.406250  0.043478  0.000000      4.000000
  0.468750  0.043478  0.000000      4.000000
  0.031250  0.086957  0.000000      4.000000
  0.093750  0.086957  0.000000      4.000000
  0.156250  0.086957  0.000000      4.000000
  0.218750  0.086957  0.000000      4.000000
  0.281250  0.086957  0.000000      4.000000
  0.343750  0.086957  0.000000      4.000000
  0.406250  0.086957  0.000000      4.000000
  0.468750  0.086957  0.000000      4.000000
  0.031250  0.130435  0.000000      4.000000
  0.093750  0.130435  0.000000      4.000000
  0.156250  0.130435  0.000000      4.000000
  0.218750  0.130435  0.000000      4.000000
  0.281250  0.130435  0.000000      4.000000
  0.343750  0.130435  0.000000      4.000000
  0.406250  0.130435  0.000000      4.000000
  0.468750  0.130435  0.000000      4.000000
  0.031250  0.173913  0.000000      4.000000
  0.093750  0.173913  0.000000      4.000000
  0.156250  0.173913  0.000000      4.000000
  0.218750  0.173913  0.000000      4.000000
  0.281250  0.173913  0.000000      4.000000
  0.343750  0.173913  0.000000      4.000000
  0.406250  0.173913  0.000000      4.000000
  0.468750  0.173913  0.000000      4.000000
  0.031250  0.217391  0.000000      4.000000
  0.093750  0.217391  0.000000      4.000000
  0.156250  0.217391  0.000000      4.000000
  0.218750  0.217391  0.000000      4.000000
  0.281250  0.217391  0.000000      4.000000
  0.343750  0.217391  0.000000      4.000000
  0.406250  0.217391  0.000000      4.000000
  0.468750  0.217391  0.000000      4.000000
  0.031250  0.260870  0.000000      4.000000
  0.093750  0.260870  0.000000      4.000000
  0.156250  0.260870  0.000000      4.000000
  0.218750  0.260870  0.000000      4.000000
  0.281250  0.260870  0.000000      4.000000
  0.343750  0.260870  0.000000      4.000000
  0.406250  0.260870  0.000000      4.000000
  0.468750  0.260870  0.000000      4.000000
  0.031250  0.304348  0.000000      4.000000
  0.093750  0.304348  0.000000      4.000000
  0.156250  0.304348  0.000000      4.000000
  0.218750  0.304348  0.000000      4.000000
[...]
  0.093750  0.434783  0.466667      8.000000
  0.156250  0.434783  0.466667      8.000000
  0.218750  0.434783  0.466667      8.000000
  0.281250  0.434783  0.466667      8.000000
  0.343750  0.434783  0.466667      8.000000
  0.406250  0.434783  0.466667      8.000000
  0.468750  0.434783  0.466667      8.000000
  0.031250  0.478261  0.466667      8.000000
  0.093750  0.478261  0.466667      8.000000
  0.156250  0.478261  0.466667      8.000000
  0.218750  0.478261  0.466667      8.000000
  0.281250  0.478261  0.466667      8.000000
  0.343750  0.478261  0.466667      8.000000
  0.406250  0.478261  0.466667      8.000000
  0.468750  0.478261  0.466667      8.000000

 Following cartesian coordinates:
            Coordinates               Weight
  0.005485  0.000000  0.000000      2.000000
  0.016456  0.000000  0.000000      2.000000
  0.027427  0.000000  0.000000      2.000000
  0.038397  0.000000  0.000000      2.000000
  0.049368  0.000000  0.000000      2.000000
  0.060339  0.000000  0.000000      2.000000
  0.071309  0.000000  0.000000      2.000000
  0.082280  0.000000  0.000000      2.000000
  0.005485  0.010741  0.000000      4.000000
  0.016456  0.010741  0.000000      4.000000
  0.027427  0.010741  0.000000      4.000000
  0.038397  0.010741  0.000000      4.000000
  0.049368  0.010741  0.000000      4.000000
  0.060339  0.010741  0.000000      4.000000
  0.071309  0.010741  0.000000      4.000000
  0.082280  0.010741  0.000000      4.000000
  0.005485  0.021482  0.000000      4.000000
  0.016456  0.021482  0.000000      4.000000
  0.027427  0.021482  0.000000      4.000000
  0.038397  0.021482  0.000000      4.000000
  0.049368  0.021482  0.000000      4.000000
  0.060339  0.021482  0.000000      4.000000
  0.071309  0.021482  0.000000      4.000000
  0.082280  0.021482  0.000000      4.000000
  0.005485  0.032223  0.000000      4.000000
  0.016456  0.032223  0.000000      4.000000
  0.027427  0.032223  0.000000      4.000000
  0.038397  0.032223  0.000000      4.000000
  0.049368  0.032223  0.000000      4.000000
  0.060339  0.032223  0.000000      4.000000
  0.071309  0.032223  0.000000      4.000000
  0.082280  0.032223  0.000000      4.000000
  0.005485  0.042964  0.000000      4.000000
  0.016456  0.042964  0.000000      4.000000
  0.027427  0.042964  0.000000      4.000000
  0.038397  0.042964  0.000000      4.000000
  0.049368  0.042964  0.000000      4.000000
  0.060339  0.042964  0.000000      4.000000
[...]
 k-point    33 :   0.0312 0.1739 0.0000  plane waves:    3099
 k-point    34 :   0.0937 0.1739 0.0000  plane waves:    3094
 k-point    35 :   0.1562 0.1739 0.0000  plane waves:    3088
 k-point    36 :   0.2187 0.1739 0.0000  plane waves:    3089
 k-point    37 :   0.2812 0.1739 0.0000  plane waves:    3100
 k-point    38 :   0.3437 0.1739 0.0000  plane waves:    3103
 k-point    39 :   0.4062 0.1739 0.0000  plane waves:    3098
 k-point    40 :   0.4687 0.1739 0.0000  plane waves:    3103
 k-point    41 :   0.0312 0.2174 0.0000  plane waves:    3100
 k-point    42 :   0.0937 0.2174 0.0000  plane waves:    3101
 k-point    43 :   0.1562 0.2174 0.0000  plane waves:    3095
 k-point    44 :   0.2187 0.2174 0.0000  plane waves:    3101
 k-point    45 :   0.2812 0.2174 0.0000  plane waves:    3096
 k-point    46 :   0.3437 0.2174 0.0000  plane waves:    3102
 k-point    47 :   0.4062 0.2174 0.0000  plane waves:    3101
 k-point    48 :   0.4687 0.2174 0.0000  plane waves:    3108
 k-point    49 :   0.0312 0.2609 0.0000  plane waves:    3106
 k-point    50 :   0.0937 0.2609 0.0000  plane waves:    3109
 k-point    51 :   0.1562 0.2609 0.0000  plane waves:    3104
 k-point    52 :   0.2187 0.2609 0.0000  plane waves:    3110
 k-point    53 :   0.2812 0.2609 0.0000  plane waves:    3106
 k-point    54 :   0.3437 0.2609 0.0000  plane waves:    3098
 k-point    55 :   0.4062 0.2609 0.0000  plane waves:    3099
 k-point    56 :   0.4687 0.2609 0.0000  plane waves:    3093
 k-point    57 :   0.0312 0.3043 0.0000  plane waves:    3114
 k-point    58 :   0.0937 0.3043 0.0000  plane waves:    3106
 k-point    59 :   0.1562 0.3043 0.0000  plane waves:    3111
 k-point    60 :   0.2187 0.3043 0.0000  plane waves:    3118
[...]
 k-point   754 :   0.0937 0.4348 0.4667  plane waves:    3104
 k-point   755 :   0.1562 0.4348 0.4667  plane waves:    3096
 k-point   756 :   0.2187 0.4348 0.4667  plane waves:    3101
 k-point   757 :   0.2812 0.4348 0.4667  plane waves:    3102
 k-point   758 :   0.3437 0.4348 0.4667  plane waves:    3104
 k-point   759 :   0.4062 0.4348 0.4667  plane waves:    3110
 k-point   760 :   0.4687 0.4348 0.4667  plane waves:    3120
 k-point   761 :   0.0312 0.4783 0.4667  plane waves:    3107
 k-point   762 :   0.0937 0.4783 0.4667  plane waves:    3105
 k-point   763 :   0.1562 0.4783 0.4667  plane waves:    3105
 k-point   764 :   0.2187 0.4783 0.4667  plane waves:    3103
 k-point   765 :   0.2812 0.4783 0.4667  plane waves:    3102
 k-point   766 :   0.3437 0.4783 0.4667  plane waves:    3109
 k-point   767 :   0.4062 0.4783 0.4667  plane waves:    3116
 k-point   768 :   0.4687 0.4783 0.4667  plane waves:    3122

 maximum and minimum number of plane-waves per node :      3129     3060

 maximum number of plane-waves:      3129
 maximum index in each direction:
   IXMAX=    9   IYMAX=    7   IZMAX=   10
   IXMIN=  -10   IYMIN=   -7   IZMIN=  -11

 serial   3D FFT for wavefunctions
 parallel 3D FFT for charge:
    minimum data exchange during FFTs selected (reduces bandwidth)

 Broyden mixing: mesh for mixing (old mesh)
   NGX = 19   NGY = 15   NGZ = 21
  (NGX  = 80   NGY  = 56   NGZ  = 96)
  gives a total of   5985 points

 initial charge density was supplied:
 charge density of overlapping atoms calculated
 number of electron      42.0000000 magnetization
 keeping initial charge density in first step

 Maximum index for augmentation-charges          646 (set IRDMAX)

 First call to EWALD:  gamma=   0.339
 Maximum number of real-space cells 3x 3x 2
 Maximum number of reciprocal cells 3x 2x 3

--------------------------------------- Ionic step        1  -------------------------------------------

--------------------------------------- Iteration      1(   1)  ---------------------------------------

 eigenvalue-minimisations  : 73728
 total energy-change (2. order) : 0.4714213E+02  (-0.1699853E+04)
 number of electron      42.0000000 magnetization
 augmentation part       42.0000000 magnetization

 Free energy of the ion-electron system (eV)
  alpha Z        PSCENC =        94.24357992
  Ewald energy   TEWEN  =      -795.76658092
  -Hartree energ DENC   =      -271.33601302
  -exchange      EXHF   =         0.00000000
  -V(xc)+E(xc)   XCENC  =        97.50108175
  PAW double counting   =       608.99811708     -597.02363782
  entropy T*S    EENTRO =        -0.00178637
  eigenvalues    EBANDS =       -85.83603455
  atomic energy  EATOM  =       996.36340036
  Solvation  Ediel_sol  =         0.00000000
  free energy    TOTEN  =        47.14212642 eV

  energy without entropy =       47.14391280  energy(sigma->0) =       47.14301961

[...]

 eigenvalue-minimisations  :103392
 total energy-change (2. order) :-0.1403281E+03  (-0.1322363E+03)
 number of electron      42.0000000 magnetization
 augmentation part       42.0000000 magnetization

[...]

 eigenvalue-minimisations  : 92688
 total energy-change (2. order) :-0.2542855E-01  (-0.2542704E-01)
 number of electron      42.0000000 magnetization
 augmentation part       42.0000000 magnetization

[...]

 Broyden mixing:
  rms(total) = 0.12310E+01    rms(broyden)= 0.12309E+01
  rms(prec ) = 0.22669E+01
  weight for this iteration     100.00

[...]

 eigenvalue-minimisations  :106920
 total energy-change (2. order) : 0.5414229E+01  (-0.3968936E+00)
 number of electron      42.0000002 magnetization
 augmentation part       -0.1495770 magnetization

[...]

 eigenvalues of (default mixing * dielectric matrix)
  average eigenvalue GAMMA=   2.0611
  2.0611

[...]

 eigenvalue-minimisations  :110280
 total energy-change (2. order) : 0.1648444E+01  (-0.3171371E+00)
 number of electron      42.0000002 magnetization
 augmentation part       -0.1687783 magnetization

[...]

 eigenvalue-minimisations  :100968
 total energy-change (2. order) :-0.9004437E-05  (-0.7606562E-06)
 number of electron      42.0000002 magnetization
 augmentation part       -0.1739314 magnetization

 Broyden mixing:
  rms(total) = 0.19967E-03    rms(broyden)= 0.19966E-03
  rms(prec ) = 0.32270E-03
  weight for this iteration     100.00

 eigenvalues of (default mixing * dielectric matrix)
  average eigenvalue GAMMA=   1.7767
  3.2896  2.4990  2.0260  1.8275  1.4995  0.9813  1.0455  1.0455

[...]

--------------------------------------- Iteration      1(  14)  ---------------------------------------

 eigenvalue-minimisations  : 93624
 total energy-change (2. order) :-0.8859281E-06  (-0.5511847E-07)
 number of electron      42.0000002 magnetization
 augmentation part       -0.1739314 magnetization

 Free energy of the ion-electron system (eV)
  alpha Z        PSCENC =        94.24357992
  Ewald energy   TEWEN  =      -795.76658092
  -Hartree energ DENC   =      -349.08410462
  -exchange      EXHF   =         0.00000000
  -V(xc)+E(xc)   XCENC  =       101.58598955
  PAW double counting   =      3715.75852379    -3704.95195520
  entropy T*S    EENTRO =        -0.00342824
  eigenvalues    EBANDS =      -148.72749954
  atomic energy  EATOM  =       996.36340036
  Solvation  Ediel_sol  =         0.00000000
  free energy    TOTEN  =       -90.58207491 eV

  energy without entropy =      -90.57864666  energy(sigma->0) =      -90.58036078

 average (electrostatic) potential at core
  the test charge radii are     0.7672
  (the norm of the test charge is              1.0000)
       1 -29.9844       2 -29.9844       3 -29.9844       4 -29.9844       5 -28.9406
       6 -28.9406       7 -28.9406       8 -28.9406       9 -29.3388      10 -29.3388
      11 -29.3388      12 -29.3388      13 -29.9196      14 -29.9196

 E-fermi :   1.8964     XC(G=0):  -9.4406     alpha+bet :-10.8605

 val. band max:        1.8958449970   @ k =   0.0312   0.0435   0.1333
 cond. band min:       1.8970393956   @ k =   0.3437   0.4348   0.3333
 fundamental gap:      0.0011943985
 Fermi energy:         1.8963694231

 k-point     1 :       0.0312    0.0000    0.0000
  band No.  band energies     occupation
      1     -12.7310      2.00000
      2     -11.5790      2.00000
      3      -8.6629      2.00000
      4      -8.4254      2.00000
      5      -6.0748      2.00000
      6      -5.0920      2.00000
      7      -4.6533      2.00000
      8      -4.3167      2.00000
      9      -3.9678      2.00000
     10      -3.5814      2.00000
     11      -2.4106      2.00000
     12      -2.2319      2.00000
     13      -2.1863      2.00000
     14      -1.0732      2.00000
     15      -0.0329      2.00000
     16       0.0023      2.00000
     17       0.1475      2.00000
     18       0.1641      2.00000
     19       0.5575      2.00000
     20       2.0787      0.00000
     21       2.1250      0.00000
     22       2.2045      0.00000
     23       5.4193      0.00000
     24       5.7978      0.00000
     25       5.8053      0.00000
     26       5.9436      0.00000
     27       6.7838      0.00000
     28       7.5800      0.00000
     29       7.7905      0.00000
     30       8.6435      0.00000
     31       8.7707      0.00000
     32       8.8661      0.00000
     33       9.0421      0.00000
     34      10.0381      0.00000
     35      11.1472      0.00000
     36      11.3791      0.00000
     37      11.7313      0.00000
     38      11.7869      0.00000
     39      11.9091      0.00000
     40      12.3622      0.00000
     41      12.8285      0.00000
     42      13.4394      0.00000
     43      13.5587      0.00000
     44      15.4721      0.00000
     45      15.5808      0.00000
     46      16.0067      0.00000
     47      16.3674      0.00000
     48      16.4530      0.00000

[...]

 k-point   768 :       0.4687    0.4783    0.4667
  band No.  band energies     occupation
      1     -11.9919      2.00000
      2     -11.9051      2.00000
      3      -8.5340      2.00000
      4      -8.4636      2.00000
      5      -5.9114      2.00000
      6      -5.8463      2.00000
      7      -4.7331      2.00000
      8      -4.5529      2.00000
      9      -4.4083      2.00000
     10      -4.1487      2.00000
     11      -2.2089      2.00000
     12      -2.1746      2.00000
     13      -2.0101      2.00000
     14      -1.8335      2.00000
     15      -0.1476      2.00000
     16       0.0059      2.00000
     17       0.4342      2.00000
     18       0.4724      2.00000
     19       0.5703      2.00000
     20       0.7642      2.00000
     21       1.6651      2.00000
     22       1.7222      2.00000
     23       5.8952      0.00000
     24       6.0120      0.00000
     25       6.9543      0.00000
     26       7.3425      0.00000
     27       7.4451      0.00000
     28       7.5230      0.00000
     29       9.4882      0.00000
     30       9.6450      0.00000
     31       9.8550      0.00000
     32       9.9673      0.00000
     33      10.4854      0.00000
     34      10.7077      0.00000
     35      11.2721      0.00000
     36      11.4657      0.00000
     37      11.4933      0.00000
     38      11.5306      0.00000
     39      13.1217      0.00000
     40      13.1833      0.00000
     41      13.8725      0.00000
     42      14.1673      0.00000
     43      14.2404      0.00000
     44      14.2830      0.00000
     45      14.6701      0.00000
     46      14.7593      0.00000
     47      14.8428      0.00000
     48      14.9735      0.00000

 soft charge-density along one line, spin component           1
         0         1         2         3         4         5         6         7         8         9
 total charge-density along one line

------------------------ aborting loop because EDIFF is reached ----------------------------------------

  FORCE on cell =-STRESS in cart. coord.  units (eV):
  Direction    XX          YY          ZZ          XY          YZ          ZX
  Alpha Z    94.24358    94.24358    94.24358
  Ewald     -90.05465  -558.27634  -147.43815    -0.00000    -0.00000     0.00000
  Hartree   186.91006     6.09555   156.08019    -0.00000    -0.00000    -0.00000
  E(xc)    -134.90603  -135.87907  -134.86816     0.00000    -0.00000     0.00000
  Local    -493.62309   125.76918  -405.65282     0.00000    -0.00000    -0.00000
  n-local    -8.84401   -10.93635    -9.24258    -0.00519    -0.00774     0.07288
  augment     1.31675     1.36149     1.34543     0.00000     0.00000     0.00000
  Kinetic   446.19557   477.87526   444.98244     0.24681     0.06699    -1.16363
  Fock        0.00000     0.00000     0.00000     0.00000     0.00000     0.00000
  Total       1.23820     0.25329    -0.55007     0.00000     0.00000     0.00000
  in kB      13.86559     2.83643    -6.15986     0.00000     0.00000     0.00000

 VOLUME and BASIS-vectors are now :
  energy-cutoff  :      450.00
  volume of cell :      143.07
      direct lattice vectors                 reciprocal lattice vectors
     5.697000000  0.000000000  0.000000000     0.175530981  0.000000000  0.000000000
     0.000000000  4.047900000  0.000000000     0.000000000  0.247041676  0.000000000
     0.000000000  0.000000000  6.204200000     0.000000000  0.000000000  0.161181135

  length of vectors
     5.697000000  4.047900000  6.204200000     0.175530981  0.247041676  0.161181135

 FORCES acting on ions
    electron-ion (+dipol)            ewald-force                    non-local-force                 convergence-correction
   0.497E+02 0.385E-12 -.250E+02   -.515E+02 0.211E-14 0.284E+02   0.181E+01 -.148E-18 -.332E+01   -.893E-04 0.315E-15 0.105E-03
   -.497E+02 -.227E-12 0.250E+02   0.515E+02 0.448E-16 -.284E+02   -.181E+01 -.133E-18 0.332E+01   0.893E-04 -.166E-14 -.105E-03
   -.497E+02 -.411E-12 -.250E+02   0.515E+02 0.587E-14 0.284E+02   -.181E+01 -.177E-18 -.332E+01   0.893E-04 -.462E-15 0.105E-03
   0.497E+02 0.130E-13 0.250E+02   -.515E+02 0.181E-14 -.284E+02   0.181E+01 -.175E-18 0.332E+01   -.893E-04 -.420E-15 -.105E-03
   0.313E+02 -.230E-12 -.527E+02   -.341E+02 0.342E-14 0.571E+02   0.194E+01 0.106E-19 -.409E+01   -.642E-04 -.111E-14 -.116E-04
   -.313E+02 -.329E-12 0.527E+02   0.341E+02 0.354E-14 -.571E+02   -.194E+01 0.263E-19 0.409E+01   0.642E-04 0.302E-15 0.116E-04
   -.313E+02 -.347E-12 -.527E+02   0.341E+02 0.299E-14 0.571E+02   -.194E+01 -.984E-20 -.409E+01   0.642E-04 -.125E-14 -.116E-04
   0.313E+02 0.669E-14 0.527E+02   -.341E+02 0.353E-14 -.571E+02   0.194E+01 -.245E-19 0.409E+01   -.642E-04 0.774E-15 0.116E-04
   -.190E-13 -.558E+02 -.155E+02   -.720E-14 0.613E+02 0.166E+02   0.151E-17 -.540E+01 -.112E+01   -.947E-15 0.276E-03 0.107E-03
   -.363E-13 0.558E+02 0.155E+02   0.108E-13 -.613E+02 -.166E+02   0.190E-17 0.540E+01 0.112E+01   -.815E-14 -.276E-03 -.107E-03
   -.190E-13 0.558E+02 -.155E+02   0.393E-14 -.613E+02 0.166E+02   0.528E-18 0.540E+01 -.112E+01   -.722E-16 -.276E-03 0.107E-03
   -.360E-13 -.558E+02 0.155E+02   0.643E-14 0.613E+02 -.166E+02   0.554E-18 -.540E+01 0.112E+01   -.926E-14 0.276E-03 -.107E-03
   -.141E-13 0.261E-12 -.623E+02   0.123E-13 0.532E-14 0.649E+02   0.346E-19 0.311E-19 -.255E+01   0.118E-14 -.768E-15 0.101E-03
   -.173E-13 0.687E-12 0.623E+02   0.173E-13 0.235E-14 -.649E+02   -.330E-19 -.174E-19 0.255E+01   0.235E-14 -.642E-15 -.101E-03
   -.997E-12 -.369E-12 -.264E-12   0.152E-13 0.767E-14 -.284E-13   0.227E-15 -.888E-15 0.000E+00   -.282E-13 -.413E-14 0.934E-15

 POSITION                                       TOTAL-FORCE (eV/Angst)
      2.96945      2.02395      3.95803         0.007356     -0.000000      0.039513
      2.72755      2.02395      2.24617        -0.007356     -0.000000     -0.039513
      5.57605      2.02395      3.95803        -0.007356      0.000000      0.039513
      0.12095      2.02395      2.24617         0.007356     -0.000000     -0.039513
      3.42333      2.02395      5.58322        -0.825288      0.000000      0.281460
      2.27367      2.02395      0.62098         0.825288     -0.000000     -0.281460
      5.12217      2.02395      5.58322         0.825288     -0.000000      0.281460
      0.57483      2.02395      0.62098        -0.825288     -0.000000     -0.281460
      4.27275      3.20476      4.52739         0.000000      0.067400     -0.077012
      1.42425      0.84314      1.67681         0.000000     -0.067400      0.077012
      4.27275      0.84314      4.52739        -0.000000     -0.067400     -0.077012
      1.42425      3.20476      1.67681        -0.000000      0.067400      0.077012
      1.42425      2.02395      3.24895        -0.000000     -0.000000      0.049266
      4.27275      2.02395      2.95525        -0.000000      0.000000     -0.049266
    total drift:                               -0.000000     -0.000000     -0.000000

  FREE ENERGIE OF THE ION-ELECTRON SYSTEM (eV)
  free  energy   TOTEN  =       -90.58207491 eV

  energy  without entropy=      -90.57864666  energy(sigma->0) =      -90.58036078