 vasp.6.4.3 19Mar24 (build May 31 2024 16:31:43) complex

 executed on             LinuxIFC date 2024.12.16  11:53:09

 INCAR:
   SYSTEM = Dielectric
   ISTART = 1
   ICHARG = 2
   PREC = Accurate
   ENCUT = 600
   ALGO = Normal
   EDIFF = 1E-6
   NEDOS = 4000
   ISMEAR = 0
   SIGMA = 0.01
   LOPTICS = .TRUE.
   CSHIFT = 0.1
   NBANDS = 32
   NCORE = 16
   LREAL = .FALSE.
   NWRITE = 3

 POTCAR:    PAW_PBE B 06Sep2000
 POTCAR:    PAW_PBE B 06Sep2000
   VRHFIN =B: s2p1

   TITEL  = PAW_PBE B 06Sep2000
   POMASS =   10.811; ZVAL   =    3.000    mass and valenz
   ENMAX  =  318.614; ENMIN  =  238.960 eV

  PAW_PBE B 06Sep2000                   :

 POSCAR: o-B14
  positions in direct lattice

 exchange-correlation table for PE
   RHO(1)=    0.500       N(1)  =     2000
   RHO(2)=  100.500       N(2)  =     4000

 ion  position               nearest neighbor table
   1  0.521  0.500  0.638-  14 1.65   5 1.68  13 1.70   2 1.73   9 1.85  11 1.85
   2  0.479  0.500  0.362-  13 1.65   6 1.68  14 1.70   1 1.73  10 1.85  12 1.85
   3  0.979  0.500  0.638-  14 1.65   7 1.68  13 1.70   4 1.73   9 1.85  11 1.85
   4  0.021  0.500  0.362-  13 1.65   8 1.68  14 1.70   3 1.73  10 1.85  12 1.85
   5  0.597  0.500  0.900-   6 1.67   1 1.68   7 1.74   9 1.81  11 1.81
   6  0.403  0.500  0.100-   5 1.67   2 1.68   8 1.74  10 1.81  12 1.81
   7  0.903  0.500  0.900-   8 1.67   3 1.68   5 1.74   9 1.81  11 1.81
   8  0.097  0.500  0.100-   7 1.67   4 1.68   6 1.74  10 1.81  12 1.81
   9  0.750  0.792  0.730-  11 1.69   7 1.81   5 1.81   3 1.85   1 1.85  14 1.97
  10  0.250  0.208  0.270-  12 1.69   8 1.81   6 1.81   4 1.85   2 1.85  13 1.97
  11  0.750  0.208  0.730-   9 1.69   7 1.81   5 1.81   3 1.85   1 1.85  14 1.97
  12  0.250  0.792  0.270-  10 1.69   8 1.81   6 1.81   4 1.85   2 1.85  13 1.97
  13  0.250  0.500  0.524-   2 1.65   4 1.65   3 1.70   1 1.70  10 1.97  12 1.97
  14  0.750  0.500  0.476-   1 1.65   3 1.65   2 1.70   4 1.70   9 1.97  11 1.97

  LATTYP: Found a simple orthorhombic cell.
 ALAT       =     4.0440580961
 B/A-ratio  =     1.4097153303
 C/A-ratio  =     1.5335761871

  Lattice vectors:

 A1 = (   0.0000000000,  -4.0440580961,   0.0000000000)
 A2 = (   5.7009706948,   0.0000000000,   0.0000000000)
 A3 = (   0.0000000000,   0.0000000000,   6.2018711955)

Analysis of symmetry for initial positions (statically):
 Subroutine PRICEL returns:
 Original cell was already a primitive cell.

 Routine SETGRP: Setting up the symmetry group for a
 simple orthorhombic supercell.

 Subroutine GETGRP returns: Found  8 space group operations
 (whereof  4 operations were pure point group operations)
 out of a pool of  8 trial point group operations.

The static configuration has the point symmetry C_2h.
 The point group associated with its full space group is D_2h.

Analysis of symmetry for dynamics (positions and initial velocities):
 Subroutine PRICEL returns:
 Original cell was already a primitive cell.

 Routine SETGRP: Setting up the symmetry group for a
 simple orthorhombic supercell.

 Subroutine GETGRP returns: Found  8 space group operations
 (whereof  4 operations were pure point group operations)
 out of a pool of  8 trial point group operations.

The dynamic configuration has the point symmetry C_2h.
 The point group associated with its full space group is D_2h.

 Subroutine INISYM returns: Found  8 space group operations
 (whereof  4 operations are pure point group operations),
 and found     1 'primitive' translations

 irot  :   1
 isymop:   1   0   0
           0   1   0
           0   0   1

 gtrans:     0.0000000     0.0000000     0.0000000

 ptrans:     0.0000000     0.0000000     0.0000000

 rotmap:
 (   1->   1)  (   2->   2)  (   3->   3)  (   4->   4)  (   5->   5)
 (   6->   6)  (   7->   7)  (   8->   8)  (   9->   9)  (  10->  10)
 (  11->  11)  (  12->  12)  (  13->  13)  (  14->  14)

[...]

 irot  :   8
 isymop:  -1   0   0
           0   1   0
           0   0   1

 gtrans:    -0.5000000     0.0000000     0.0000000

 ptrans:     0.0000000     0.0000000     0.0000000

 rotmap:
 (   1->   3)  (   2->   4)  (   3->   1)  (   4->   2)  (   5->   7)
 (   6->   8)  (   7->   5)  (   8->   6)  (   9->   9)  (  10->  10)
 (  11->  11)  (  12->  12)  (  13->  13)  (  14->  14)

                                     Primitive cell

  volume of cell :     142.9845

  direct lattice vectors                    reciprocal lattice vectors
     5.700970695  0.000000000  0.000000000     0.175408725  0.000000000  0.000000000
     0.000000000  4.044058096  0.000000000     0.000000000  0.247276368  0.000000000
     0.000000000  0.000000000  6.201871195     0.000000000  0.000000000  0.161241659

  length of vectors
     5.700970695  4.044058096  6.201871195     0.175408725  0.247276368  0.161241659

  position of ions in fractional coordinates (direct lattice)
     0.521289885  0.500000000  0.637957702
     0.478710115  0.500000000  0.362042298
     0.978710115  0.500000000  0.637957702
     0.021289885  0.500000000  0.362042298
     0.597449662  0.500000000  0.899868316
     0.402550338  0.500000000  0.100131684
     0.902550338  0.500000000  0.899868316
     0.097449662  0.500000000  0.100131684
     0.750000000  0.791564932  0.729579396
     0.250000000  0.208435068  0.270420604
     0.750000000  0.208435068  0.729579396
     0.250000000  0.791564932  0.270420604
     0.250000000  0.500000000  0.523993035
     0.750000000  0.500000000  0.476006965

  ion indices of the primitive-cell ions
   primitive index   ion index
                 1           1
                 2           2
                 3           3
                 4           4
                 5           5
                 6           6
                 7           7
                 8           8
                 9           9
                10          10
                11          11
                12          12
                13          13
                14          14

 KPOINTS: k-points

Automatic generation of k-mesh.
 Grid dimensions read from file:
 generate k-points for:   10   14    9

 Generating k-lattice:

  Cartesian coordinates                     Fractional coordinates (reciprocal lattice)
     0.017540872  0.000000000  0.000000000     0.100000000  0.000000000  0.000000000
     0.000000000  0.017662598  0.000000000     0.000000000  0.071428571  0.000000000
     0.000000000  0.000000000  0.017915740     0.000000000  0.000000000  0.111111111

  Length of vectors
     0.017540872  0.017662598  0.017915740

  Shift w.r.t. Gamma in fractional coordinates (k-lattice)
     0.500000000  0.500000000  0.000000000

 Subroutine IBZKPT returns following result:

 Found    175 irreducible k-points:

 Following reciprocal coordinates:
            Coordinates               Weight
  0.050000  0.035714  0.000000      4.000000
  0.150000  0.035714  0.000000      4.000000
  0.250000  0.035714  0.000000      4.000000
  0.350000  0.035714  0.000000      4.000000
  0.450000  0.035714  0.000000      4.000000
  0.050000  0.107143  0.000000      4.000000
  0.150000  0.107143  0.000000      4.000000
  0.250000  0.107143  0.000000      4.000000
  0.350000  0.107143  0.000000      4.000000
  0.450000  0.107143  0.000000      4.000000
  0.050000  0.178571  0.000000      4.000000
  0.150000  0.178571  0.000000      4.000000
  0.250000  0.178571  0.000000      4.000000
  0.350000  0.178571  0.000000      4.000000
  0.450000  0.178571  0.000000      4.000000
  0.050000  0.250000  0.000000      4.000000
  0.150000  0.250000  0.000000      4.000000
  0.250000  0.250000  0.000000      4.000000
  0.350000  0.250000  0.000000      4.000000
  0.450000  0.250000  0.000000      4.000000
  0.050000  0.321429  0.000000      4.000000
  0.150000  0.321429  0.000000      4.000000
  0.250000  0.321429  0.000000      4.000000
  0.350000  0.321429  0.000000      4.000000
  0.450000  0.321429  0.000000      4.000000
  0.050000  0.392857  0.000000      4.000000
  0.150000  0.392857  0.000000      4.000000
  0.250000  0.392857  0.000000      4.000000
  0.350000  0.392857  0.000000      4.000000
  0.450000  0.392857  0.000000      4.000000
  0.050000  0.464286  0.000000      4.000000
  0.150000  0.464286  0.000000      4.000000
  0.250000  0.464286  0.000000      4.000000
  0.350000  0.464286  0.000000      4.000000
  0.450000  0.464286  0.000000      4.000000
  0.050000  0.035714  0.111111      8.000000
  0.150000  0.035714  0.111111      8.000000
  0.250000  0.035714  0.111111      8.000000
  0.350000  0.035714  0.111111      8.000000
  0.450000  0.035714  0.111111      8.000000
  0.050000  0.107143  0.111111      8.000000
  0.150000  0.107143  0.111111      8.000000
  0.250000  0.107143  0.111111      8.000000
  0.350000  0.107143  0.111111      8.000000
  0.450000  0.107143  0.111111      8.000000
  0.050000  0.178571  0.111111      8.000000
  0.150000  0.178571  0.111111      8.000000
  0.250000  0.178571  0.111111      8.000000
  0.350000  0.178571  0.111111      8.000000
  0.450000  0.178571  0.111111      8.000000
  0.050000  0.250000  0.111111      8.000000
  0.150000  0.250000  0.111111      8.000000
  0.250000  0.250000  0.111111      8.000000
  0.350000  0.250000  0.111111      8.000000
  0.450000  0.250000  0.111111      8.000000
  0.050000  0.321429  0.111111      8.000000
  0.150000  0.321429  0.111111      8.000000
  0.250000  0.321429  0.111111      8.000000
  0.350000  0.321429  0.111111      8.000000
  0.450000  0.321429  0.111111      8.000000
[...]
  0.050000  0.321429  0.444444      8.000000
  0.150000  0.321429  0.444444      8.000000
  0.250000  0.321429  0.444444      8.000000
  0.350000  0.321429  0.444444      8.000000
  0.450000  0.321429  0.444444      8.000000
  0.050000  0.392857  0.444444      8.000000
  0.150000  0.392857  0.444444      8.000000
  0.250000  0.392857  0.444444      8.000000
  0.350000  0.392857  0.444444      8.000000
  0.450000  0.392857  0.444444      8.000000
  0.050000  0.464286  0.444444      8.000000
  0.150000  0.464286  0.444444      8.000000
  0.250000  0.464286  0.444444      8.000000
  0.350000  0.464286  0.444444      8.000000
  0.450000  0.464286  0.444444      8.000000

 Following cartesian coordinates:
            Coordinates               Weight
  0.008770  0.008831  0.000000      4.000000
  0.026311  0.008831  0.000000      4.000000
  0.043852  0.008831  0.000000      4.000000
  0.061393  0.008831  0.000000      4.000000
  0.078934  0.008831  0.000000      4.000000
  0.008770  0.026494  0.000000      4.000000
  0.026311  0.026494  0.000000      4.000000
  0.043852  0.026494  0.000000      4.000000
  0.061393  0.026494  0.000000      4.000000
  0.078934  0.026494  0.000000      4.000000
  0.008770  0.044156  0.000000      4.000000
  0.026311  0.044156  0.000000      4.000000
  0.043852  0.044156  0.000000      4.000000
  0.061393  0.044156  0.000000      4.000000
  0.078934  0.044156  0.000000      4.000000
  0.008770  0.061819  0.000000      4.000000
  0.026311  0.061819  0.000000      4.000000
  0.043852  0.061819  0.000000      4.000000
  0.061393  0.061819  0.000000      4.000000
  0.078934  0.061819  0.000000      4.000000
  0.008770  0.079482  0.000000      4.000000
[...]
    2.888850    5.934537    5.296306    3.882261    0.000000    0.000000    0.000000
    2.976391    5.961618    5.390869    4.048656    0.000000    0.000000   -0.000000
    3.063932    6.175400    5.489103    4.527752    0.000000    0.000000   -0.000000
    3.151473    6.428664    5.579709    5.127789    0.000000    0.000000   -0.000000
    3.239014    6.691446    5.687816    5.805875    0.000000    0.000000   -0.000000
    3.326554    6.951423    5.791913    6.417974    0.000000    0.000000   -0.000000
    3.414095    7.203856    5.932956    6.834887    0.000000    0.000000   -0.000000
    3.501636    7.516349    6.036140    7.116658    0.000000    0.000000   -0.000000
    3.589177    7.838038    6.125705    7.405738    0.000000    0.000000   -0.000000
    3.676718    8.144536    6.249561    8.025714    0.000000    0.000000   -0.000000
    3.764259    8.373266    6.434045    8.364472    0.000000    0.000000   -0.000000
    3.851800    8.639465    6.552321    8.260819    0.000000    0.000000    0.000000
    3.939341    8.574741    6.600152    8.387416    0.000000    0.000000    0.000000
    4.026882    8.471774    6.657768    8.592195    0.000000    0.000000    0.000000
    4.114423    8.320610    6.682405    8.733139    0.000000    0.000000    0.000000
    4.201963    8.133449    6.682893    8.806820    0.000000    0.000000    0.000000
    4.289504    7.954099    6.804733    9.006246    0.000000    0.000000   -0.000000
    4.377045    8.009417    6.958205    9.483604    0.000000    0.000000   -0.000000
    4.464586    7.877399    6.879691    9.149151    0.000000    0.000000   -0.000000
    4.552127    7.463256    7.046693    8.739140    0.000000    0.000000   -0.000000
    4.639668    7.035171    7.173164    8.682588    0.000000    0.000000   -0.000000
    4.727209    6.740660    7.182126    8.662216    0.000000    0.000000   -0.000000
    4.814750    6.444705    7.171818    8.369996    0.000000    0.000000   -0.000000
    4.902291    6.072942    7.476708    7.727901    0.000000    0.000000   -0.000000
    4.989832    5.711903    7.510463    6.891859    0.000000    0.000000   -0.000000
    5.077373    5.616334    7.261252    5.427750    0.000000    0.000000    0.000000
    5.164913    5.296737    7.239435    4.758300    0.000000    0.000000    0.000000
[...]
   33.703249    0.722693    0.741890    0.706979    0.000000    0.000000    0.000000
   33.790790    0.724327    0.743410    0.708678    0.000000    0.000000    0.000000
   33.878330    0.725946    0.744915    0.710360    0.000000    0.000000    0.000000
   33.965871    0.727550    0.746407    0.712028    0.000000    0.000000    0.000000
   34.053412    0.729138    0.747885    0.713680    0.000000    0.000000    0.000000
   34.140953    0.730712    0.749348    0.715317    0.000000    0.000000    0.000000
   34.228494    0.732272    0.750799    0.716940    0.000000    0.000000    0.000000
   34.316035    0.733817    0.752236    0.718547    0.000000    0.000000    0.000000
   34.403576    0.735348    0.753660    0.720141    0.000000    0.000000    0.000000
   34.491117    0.736865    0.755071    0.721720    0.000000    0.000000    0.000000
   34.578658    0.738368    0.756469    0.723285    0.000000    0.000000    0.000000
   34.666199    0.739857    0.757854    0.724836    0.000000    0.000000    0.000000
   34.753740    0.741333    0.759227    0.726373    0.000000    0.000000    0.000000
   34.841280    0.742796    0.760588    0.727897    0.000000    0.000000    0.000000
   34.928821    0.744246    0.761936    0.729408    0.000000    0.000000    0.000000

  frequency dependent IMAGINARY DIELECTRIC FUNCTION (independent particle, no local field effects) current-current
     E(ev)      X         Y         Z        XY        YZ        ZX
    0.000000  148.622818  121.228825  356.264263    0.000000    0.000000    0.000000
    0.087541   15.421617   12.707940   36.913376    0.000000    0.000000    0.000000
    0.175082    8.355383    6.226766   20.809493    0.000000    0.000000    0.000000
    0.262623    6.297994    3.470693   16.947326    0.000000    0.000000    0.000000
    0.350164    4.409701    2.554965   13.845415    0.000000    0.000000    0.000000
    0.437705    2.971236    2.139659    9.041219    0.000000    0.000000    0.000000
    0.525245    2.472945    1.774257    6.936619    0.000000    0.000000    0.000000
    0.612786    2.093406    1.540227    5.741545    0.000000    0.000000    0.000000
    0.700327    1.741894    1.297441    5.012867    0.000000    0.000000    0.000000
    0.787868    1.460178    1.133527    4.572710    0.000000    0.000000    0.000000
    0.875409    1.272977    1.014886    4.433040    0.000000    0.000000    0.000000
    0.962950    1.155929    0.896288    4.458248    0.000000    0.000000    0.000000
    1.050491    1.070803    0.815379    4.810414    0.000000    0.000000    0.000000
    1.138032    1.000437    0.766353    5.648367    0.000000    0.000000    0.000000
    1.225573    0.938517    0.740663    7.584920    0.000000    0.000000    0.000000
    1.313114    0.907298    0.721659   12.213336    0.000000    0.000000    0.000000
    1.400654    0.905342    0.697583   17.640394    0.000000    0.000000    0.000000
    1.488195    0.933828    0.656294   17.207969    0.000000    0.000000    0.000000
    1.575736    1.009275    0.659949   12.594330    0.000000    0.000000    0.000000
    1.663277    1.139013    0.661385    9.750755    0.000000    0.000000    0.000000
    1.750818    1.304746    0.645435    9.075006    0.000000    0.000000    0.000000
    1.838359    1.466420    0.610748   10.269264    0.000000    0.000000    0.000000
    1.925900    1.566727    0.574668   10.792460    0.000000    0.000000    0.000000
    2.013441    1.576577    0.574985    9.901907    0.000000    0.000000    0.000000
    2.100982    1.609027    0.590252    7.523719    0.000000    0.000000    0.000000
    2.188523    1.732297    0.578234    6.847124    0.000000    0.000000    0.000000
    2.276064    1.590753    0.568959    6.103130    0.000000    0.000000    0.000000
    2.363604    1.501182    0.566639    5.449740    0.000000    0.000000    0.000000
    2.451145    1.388176    0.559347    4.866464    0.000000    0.000000    0.000000
    2.538686    1.245904    0.526133    4.379304    0.000000    0.000000    0.000000
    2.626227    1.135597    0.502019    4.163894    0.000000    0.000000   -0.000000
    2.713768    1.110757    0.485127    4.546718    0.000000    0.000000   -0.000000
    2.801309    1.140787    0.475321    3.968611    0.000000    0.000000   -0.000000
    2.888850    1.123306    0.477287    3.396238    0.000000    0.000000   -0.000000
    2.976391    0.942473    0.479555    2.846837    0.000000    0.000000   -0.000000
    3.063932    0.810257    0.508950    2.344483    0.000000    0.000000   -0.000000
    3.151473    0.774506    0.528871    2.061589    0.000000    0.000000   -0.000000
    3.239014    0.803311    0.567759    1.993560    0.000000    0.000000    0.000000
    3.326554    0.880452    0.600636    2.187810    0.000000    0.000000   -0.000000
    3.414095    0.968347    0.661143    2.430787    0.000000    0.000000   -0.000000
    3.501636    1.098476    0.764726    2.713093    0.000000    0.000000   -0.000000
    3.589177    1.327743    0.830892    2.713510    0.000000    0.000000   -0.000000
    3.676718    1.652116    0.884810    3.021865    0.000000    0.000000    0.000000
    3.764259    2.003342    1.010397    3.641904    0.000000    0.000000    0.000000
    3.851800    2.533438    1.206341    4.116350    0.000000    0.000000    0.000000
    3.939341    3.078241    1.385764    4.229001    0.000000    0.000000   -0.000000
    4.026882    3.528748    1.529328    4.616928    0.000000    0.000000   -0.000000
    4.114423    3.833495    1.702346    4.927633    0.000000    0.000000   -0.000000
    4.201963    4.192946    1.776138    5.356854    0.000000    0.000000   -0.000000
    4.289504    4.349583    1.835270    5.561351    0.000000    0.000000   -0.000000
    4.377045    4.591482    2.103903    6.324764    0.000000    0.000000    0.000000
    4.464586    5.147897    2.240288    7.294145    0.000000    0.000000    0.000000
    4.552127    5.519738    2.314118    7.608209    0.000000    0.000000    0.000000
    4.639668    5.641114    2.584099    7.933416    0.000000    0.000000    0.000000
    4.727209    5.770222    2.879447    8.608328    0.000000    0.000000    0.000000
    4.814750    5.833155    2.935183    9.404679    0.000000    0.000000   -0.000000
    4.902291    5.985830    3.213975   10.140549    0.000000    0.000000    0.000000
    4.989832    5.800264    3.782281   10.830547    0.000000    0.000000    0.000000
    5.077373    5.799997    4.107165   10.885138    0.000000    0.000000    0.000000
    5.164913    5.823708    4.276748   10.266442    0.000000    0.000000    0.000000
[...]
   33.703249    0.000230    0.000213    0.000210    0.000000    0.000000    0.000000
   33.790790    0.000226    0.000209    0.000207    0.000000    0.000000    0.000000
   33.878330    0.000223    0.000206    0.000204    0.000000    0.000000    0.000000
   33.965871    0.000219    0.000203    0.000200    0.000000    0.000000    0.000000
   34.053412    0.000216    0.000199    0.000197    0.000000    0.000000    0.000000
   34.140953    0.000212    0.000196    0.000194    0.000000    0.000000    0.000000
   34.228494    0.000209    0.000193    0.000191    0.000000    0.000000    0.000000
   34.316035    0.000206    0.000190    0.000188    0.000000    0.000000    0.000000
   34.403576    0.000202    0.000187    0.000185    0.000000    0.000000    0.000000
   34.491117    0.000199    0.000184    0.000182    0.000000    0.000000    0.000000
   34.578658    0.000196    0.000181    0.000179    0.000000    0.000000    0.000000
   34.666199    0.000193    0.000179    0.000177    0.000000    0.000000    0.000000
   34.753740    0.000190    0.000176    0.000174    0.000000    0.000000    0.000000
   34.841280    0.000187    0.000173    0.000171    0.000000    0.000000    0.000000
   34.928821    0.000184    0.000170    0.000169    0.000000    0.000000    0.000000

  frequency dependent      REAL DIELECTRIC FUNCTION (independent particle, no local field effects) current-current
     E(ev)        X           Y           Z          XY          YZ          ZX
    0.000000    6.454658    4.664466   14.834047    0.000000    0.000000    0.000000
    0.087541    6.320050    4.292381   14.819949    0.000000    0.000000    0.000000
    0.175082    5.917772    3.410034   14.522077    0.000000    0.000000    0.000000
    0.262623    5.376240    3.841878   12.920794    0.000000    0.000000    0.000000
    0.350164    4.378168    4.289143    9.227562    0.000000    0.000000    0.000000
    0.437705    4.736455    4.360141    8.572845    0.000000    0.000000    0.000000
    0.525245    5.007107    4.382022    9.620439    0.000000    0.000000    0.000000
    0.612786    5.034019    4.374003   10.252919    0.000000    0.000000    0.000000
    0.700327    5.098582    4.390838   10.985401    0.000000    0.000000    0.000000
    0.787868    5.195208    4.435020   11.670091    0.000000    0.000000    0.000000
    0.875409    5.328858    4.464922   12.426740    0.000000    0.000000    0.000000
    0.962950    5.433025    4.497711   13.258307    0.000000    0.000000    0.000000
    1.050491    5.526895    4.556065   14.318825    0.000000    0.000000    0.000000
    1.138032    5.603841    4.606296   15.654889    0.000000    0.000000    0.000000
    1.225573    5.696528    4.645650   17.380074    0.000000    0.000000    0.000000
    1.313114    5.802833    4.668233   18.309609    0.000000    0.000000    0.000000
    1.400654    5.913345    4.672856   13.920088    0.000000    0.000000    0.000000
    1.488195    6.029034    4.707193    6.772406    0.000000    0.000000    0.000000
    1.575736    6.144981    4.746455    3.757495    0.000000    0.000000    0.000000
    1.663277    6.226542    4.745075    4.759927    0.000000    0.000000    0.000000
    1.750818    6.265935    4.753841    5.933210    0.000000    0.000000    0.000000
    1.838359    6.188651    4.754127    6.327001    0.000000    0.000000    0.000000
    1.925900    6.089352    4.799524    4.533680    0.000000    0.000000   -0.000000
    2.013441    5.968593    4.851285    2.435266    0.000000    0.000000    0.000000
    2.100982    5.972553    4.873893    2.122736    0.000000    0.000000    0.000000
    2.188523    5.788426    4.887264    2.691244    0.000000    0.000000    0.000000
    2.276064    5.639835    4.924158    2.641226    0.000000    0.000000    0.000000
    2.363604    5.593886    4.949541    2.758847    0.000000    0.000000    0.000000
    2.451145    5.561534    4.973827    3.093652    0.000000    0.000000   -0.000000
    2.538686    5.584734    5.001931    3.341925    0.000000    0.000000   -0.000000
    2.626227    5.696020    5.064321    3.966935    0.000000    0.000000   -0.000000
    2.713768    5.824035    5.126431    3.914376    0.000000    0.000000    0.000000
    2.801309    5.897201    5.207104    3.455866    0.000000    0.000000    0.000000
    2.888850    5.882589    5.285741    3.676459    0.000000    0.000000    0.000000
    2.976391    5.922803    5.380153    3.885680    0.000000    0.000000    0.000000
    3.063932    6.146382    5.476483    4.403125    0.000000    0.000000    0.000000
    3.151473    6.402858    5.565903    5.025694    0.000000    0.000000    0.000000
    3.239014    6.664700    5.671766    5.711958    0.000000    0.000000    0.000000
    3.326554    6.920858    5.774115    6.315689    0.000000    0.000000    0.000000
    3.414095    7.169029    5.911981    6.721301    0.000000    0.000000    0.000000
    3.501636    7.475210    6.009566    6.989668    0.000000    0.000000    0.000000
    3.589177    7.785351    6.095901    7.281988    0.000000    0.000000    0.000000
    3.676718    8.075617    6.217449    7.888863    0.000000    0.000000    0.000000
    3.764259    8.287301    6.396032    8.197808    0.000000    0.000000    0.000000
    3.851800    8.527940    6.504858    8.072389    0.000000    0.000000    0.000000
    3.939341    8.437396    6.544376    8.197296    0.000000    0.000000    0.000000
    4.026882    8.314389    6.595877    8.386714    0.000000    0.000000    0.000000
    4.114423    8.151158    6.613138    8.516727    0.000000    0.000000    0.000000
    4.201963    7.949682    6.611308    8.574054    0.000000    0.000000    0.000000
    4.289504    7.766227    6.731838    8.768728    0.000000    0.000000    0.000000
    4.377045    7.814091    6.874412    9.216176    0.000000    0.000000    0.000000
    4.464586    7.660357    6.791082    8.842378    0.000000    0.000000    0.000000
    4.552127    7.233151    6.956623    8.423603    0.000000    0.000000    0.000000
    4.639668    6.803391    7.073077    8.358628    0.000000    0.000000   -0.000000
    4.727209    6.507089    7.071146    8.315264    0.000000    0.000000   -0.000000
    4.814750    6.212232    7.060425    7.995505    0.000000    0.000000    0.000000
    4.902291    5.837670    7.356130    7.328917    0.000000    0.000000    0.000000
    4.989832    5.487715    7.368961    6.470819    0.000000    0.000000    0.000000
    5.077373    5.395754    7.108927    5.009875    0.000000    0.000000    0.000000
    5.164913    5.078446    7.083014    4.370753    0.000000    0.000000   -0.000000
[...]
   33.703249    0.722744    0.741933    0.707111    0.000000    0.000000   -0.000000
   33.790790    0.724378    0.743453    0.708809    0.000000    0.000000   -0.000000
   33.878330    0.725997    0.744958    0.710491    0.000000    0.000000   -0.000000
   33.965871    0.727600    0.746450    0.712158    0.000000    0.000000   -0.000000
   34.053412    0.729189    0.747927    0.713809    0.000000    0.000000   -0.000000
   34.140953    0.730763    0.749391    0.715446    0.000000    0.000000   -0.000000
   34.228494    0.732322    0.750841    0.717068    0.000000    0.000000   -0.000000
   34.316035    0.733867    0.752278    0.718675    0.000000    0.000000   -0.000000
   34.403576    0.735397    0.753702    0.720268    0.000000    0.000000   -0.000000
   34.491117    0.736914    0.755112    0.721846    0.000000    0.000000   -0.000000
   34.578658    0.738417    0.756510    0.723410    0.000000    0.000000   -0.000000
   34.666199    0.739906    0.757896    0.724961    0.000000    0.000000   -0.000000
   34.753740    0.741382    0.759269    0.726498    0.000000    0.000000   -0.000000
   34.841280    0.742844    0.760629    0.728021    0.000000    0.000000   -0.000000
   34.928821    0.744294    0.761977    0.729531    0.000000    0.000000   -0.000000

 The outermost node in the dielectric function lies at epsilon=  20.5