 vasp.6.4.3 19Mar24 (build May 31 2024 16:31:43) complex

 executed on             LinuxIFC date 2024.11.11  15:58:31

 INCAR:
   SYSTEM = Convergence
   ISTART = 0
   ICHARG = 2
   PREC = Accurate
   ENCUT = 600
   LCHARG = .FALSE.
   LWAVE = .FALSE.
   ALGO = Normal
   NELM = 100
   EDIFF = 1E-6
   EDIFFG = -1E-3
   SIGMA = 0.05
   ISMEAR = 0
   ISPIN = 1
   NSW = 0
   IBRION = -1
   POTIM = .5
   ISIF = 2
   GGA = PE

 POTCAR:    PAW_PBE B 06Sep2000
 POTCAR:    PAW_PBE B 06Sep2000
   VRHFIN =B: s2p1

   TITEL  = PAW_PBE B 06Sep2000
   POMASS =   10.811; ZVAL   =    3.000    mass and valenz
   ENMAX  =  318.614; ENMIN  =  238.960 eV

  PAW_PBE B 06Sep2000                   :

 POSCAR: o-B14
  positions in direct lattice

 exchange-correlation table for PE
   RHO(1)=    0.500       N(1)  =     2000
   RHO(2)=  100.500       N(2)  =     4000

 ion  position               nearest neighbor table
   1  0.521  0.500  0.638-  14 1.65   5 1.69  13 1.70   2 1.73   9 1.85  11 1.85
   2  0.479  0.500  0.362-  13 1.65   6 1.69  14 1.70   1 1.73  10 1.85  12 1.85
   3  0.979  0.500  0.638-  14 1.65   7 1.69  13 1.70   4 1.73   9 1.85  11 1.85
   4  0.021  0.500  0.362-  13 1.65   8 1.69  14 1.70   3 1.73  10 1.85  12 1.85
   5  0.601  0.500  0.900-   1 1.69   6 1.70   7 1.70   9 1.80  11 1.80
   6  0.399  0.500  0.100-   2 1.69   5 1.70   8 1.70  10 1.80  12 1.80
   7  0.899  0.500  0.900-   3 1.69   8 1.70   5 1.70   9 1.80  11 1.80
   8  0.101  0.500  0.100-   4 1.69   7 1.70   6 1.70  10 1.80  12 1.80
   9  0.750  0.792  0.730-  11 1.69   7 1.80   5 1.80   3 1.85   1 1.85  14 1.97
  10  0.250  0.208  0.270-  12 1.69   8 1.80   6 1.80   4 1.85   2 1.85  13 1.97
  11  0.750  0.208  0.730-   9 1.69   7 1.80   5 1.80   3 1.85   1 1.85  14 1.97
  12  0.250  0.792  0.270-  10 1.69   8 1.80   6 1.80   4 1.85   2 1.85  13 1.97
  13  0.250  0.500  0.524-   2 1.65   4 1.65   3 1.70   1 1.70  10 1.97  12 1.97
  14  0.750  0.500  0.476-   1 1.65   3 1.65   2 1.70   4 1.70   9 1.97  11 1.97

  LATTYP: Found a simple orthorhombic cell.
 ALAT       =     4.0551862200
 B/A-ratio  =     1.4073964278
 C/A-ratio  =     1.5326959658

  Lattice vectors:

 A1 = (   0.0000000000,  -4.0551862200,   0.0000000000)
 A2 = (   5.7072546000,   0.0000000000,   0.0000000000)
 A3 = (   0.0000000000,   0.0000000000,   6.2153675600)

Analysis of symmetry for initial positions (statically):
 Subroutine PRICEL returns:
 Original cell was already a primitive cell.

 Routine SETGRP: Setting up the symmetry group for a
 simple orthorhombic supercell.

 Subroutine GETGRP returns: Found  8 space group operations
 (whereof  4 operations were pure point group operations)
 out of a pool of  8 trial point group operations.

The static configuration has the point symmetry C_2h.
 The point group associated with its full space group is D_2h.

Analysis of symmetry for dynamics (positions and initial velocities):
 Subroutine PRICEL returns:
 Original cell was already a primitive cell.

 Routine SETGRP: Setting up the symmetry group for a
 simple orthorhombic supercell.

 Subroutine GETGRP returns: Found  8 space group operations
 (whereof  4 operations were pure point group operations)
 out of a pool of  8 trial point group operations.

The dynamic configuration has the point symmetry C_2h.
 The point group associated with its full space group is D_2h.

 Subroutine INISYM returns: Found  8 space group operations
 (whereof  4 operations are pure point group operations),
 and found     1 'primitive' translations

                                     Primitive cell

  volume of cell :     143.8483

  direct lattice vectors                    reciprocal lattice vectors
     5.707254600  0.000000000  0.000000000     0.175215593  0.000000000  0.000000000
     0.000000000  4.055186220  0.000000000     0.000000000  0.246597800  0.000000000
     0.000000000  0.000000000  6.215367560     0.000000000  0.000000000  0.160891531

  length of vectors
     5.707254600  4.055186220  6.215367560     0.175215593  0.246597800  0.160891531

  position of ions in fractional coordinates (direct lattice)
     0.521230000  0.500000000  0.637960000
     0.478770000  0.500000000  0.362040000
     0.978770000  0.500000000  0.637960000
     0.021230000  0.500000000  0.362040000
     0.600900000  0.500000000  0.899910000
     0.399100000  0.500000000  0.100090000
     0.899100000  0.500000000  0.899910000
     0.100900000  0.500000000  0.100090000
     0.750000000  0.791710000  0.729730000
     0.250000000  0.208290000  0.270270000
     0.750000000  0.208290000  0.729730000
     0.250000000  0.791710000  0.270270000
     0.250000000  0.500000000  0.523670000
     0.750000000  0.500000000  0.476330000

  ion indices of the primitive-cell ions
   primitive index   ion index
                 1           1
                 2           2
                 3           3
                 4           4
                 5           5
                 6           6
                 7           7
                 8           8
                 9           9
                10          10
                11          11
                12          12
                13          13
                14          14

 KPOINTS: k-points

Automatic generation of k-mesh.
 Grid dimensions read from file:
 generate k-points for:   10   14    9

 Generating k-lattice:

  Cartesian coordinates                     Fractional coordinates (reciprocal lattice)
     0.017521559  0.000000000  0.000000000     0.100000000  0.000000000  0.000000000
     0.000000000  0.017614129  0.000000000     0.000000000  0.071428571  0.000000000
     0.000000000  0.000000000  0.017876837     0.000000000  0.000000000  0.111111111

  Length of vectors
     0.017521559  0.017614129  0.017876837

  Shift w.r.t. Gamma in fractional coordinates (k-lattice)
     0.500000000  0.500000000  0.000000000

 Subroutine IBZKPT returns following result:

 Found    175 irreducible k-points:

 Following reciprocal coordinates:
            Coordinates               Weight
  0.050000  0.035714  0.000000      4.000000
  0.150000  0.035714  0.000000      4.000000
  0.250000  0.035714  0.000000      4.000000
  0.350000  0.035714  0.000000      4.000000
  0.450000  0.035714  0.000000      4.000000
  0.050000  0.107143  0.000000      4.000000
  0.150000  0.107143  0.000000      4.000000
  0.250000  0.107143  0.000000      4.000000
  0.350000  0.107143  0.000000      4.000000
  0.450000  0.107143  0.000000      4.000000
  0.050000  0.178571  0.000000      4.000000
  0.150000  0.178571  0.000000      4.000000
  0.250000  0.178571  0.000000      4.000000
  0.350000  0.178571  0.000000      4.000000
  0.450000  0.178571  0.000000      4.000000
  0.050000  0.250000  0.000000      4.000000
  0.150000  0.250000  0.000000      4.000000
  0.250000  0.250000  0.000000      4.000000
  0.350000  0.250000  0.000000      4.000000
  0.450000  0.250000  0.000000      4.000000
  0.050000  0.321429  0.000000      4.000000
  0.150000  0.321429  0.000000      4.000000
  0.250000  0.321429  0.000000      4.000000
  0.350000  0.321429  0.000000      4.000000
  0.450000  0.321429  0.000000      4.000000
  0.050000  0.392857  0.000000      4.000000
  0.150000  0.392857  0.000000      4.000000
  0.250000  0.392857  0.000000      4.000000
  0.350000  0.392857  0.000000      4.000000
  0.450000  0.392857  0.000000      4.000000
  0.050000  0.464286  0.000000      4.000000
  0.150000  0.464286  0.000000      4.000000
  0.250000  0.464286  0.000000      4.000000
  0.350000  0.464286  0.000000      4.000000
  0.450000  0.464286  0.000000      4.000000
  0.050000  0.035714  0.111111      8.000000
  0.150000  0.035714  0.111111      8.000000
  0.250000  0.035714  0.111111      8.000000
  0.350000  0.035714  0.111111      8.000000
  0.450000  0.035714  0.111111      8.000000
  0.050000  0.107143  0.111111      8.000000
  0.150000  0.107143  0.111111      8.000000
  0.250000  0.107143  0.111111      8.000000
  0.350000  0.107143  0.111111      8.000000
  0.450000  0.107143  0.111111      8.000000
  0.050000  0.178571  0.111111      8.000000
  0.150000  0.178571  0.111111      8.000000
  0.250000  0.178571  0.111111      8.000000
  0.350000  0.178571  0.111111      8.000000
  0.450000  0.178571  0.111111      8.000000
  0.050000  0.250000  0.111111      8.000000
  0.150000  0.250000  0.111111      8.000000
  0.250000  0.250000  0.111111      8.000000
  0.350000  0.250000  0.111111      8.000000
  0.450000  0.250000  0.111111      8.000000
  0.050000  0.321429  0.111111      8.000000
  0.150000  0.321429  0.111111      8.000000
  0.250000  0.321429  0.111111      8.000000
  0.350000  0.321429  0.111111      8.000000
  0.450000  0.321429  0.111111      8.000000
[...]
  0.050000  0.321429  0.444444      8.000000
  0.150000  0.321429  0.444444      8.000000
  0.250000  0.321429  0.444444      8.000000
  0.350000  0.321429  0.444444      8.000000
  0.450000  0.321429  0.444444      8.000000
  0.050000  0.392857  0.444444      8.000000
  0.150000  0.392857  0.444444      8.000000
  0.250000  0.392857  0.444444      8.000000
  0.350000  0.392857  0.444444      8.000000
  0.450000  0.392857  0.444444      8.000000
  0.050000  0.464286  0.444444      8.000000
  0.150000  0.464286  0.444444      8.000000
  0.250000  0.464286  0.444444      8.000000
  0.350000  0.464286  0.444444      8.000000
  0.450000  0.464286  0.444444      8.000000

 Following cartesian coordinates:
            Coordinates               Weight
  0.008777  0.008823  0.000000      4.000000
  0.026330  0.008823  0.000000      4.000000
  0.043883  0.008823  0.000000      4.000000
  0.061436  0.008823  0.000000      4.000000
  0.078989  0.008823  0.000000      4.000000
  0.008777  0.026469  0.000000      4.000000
  0.026330  0.026469  0.000000      4.000000
  0.043883  0.026469  0.000000      4.000000
  0.061436  0.026469  0.000000      4.000000
  0.078989  0.026469  0.000000      4.000000
  0.008777  0.044115  0.000000      4.000000
  0.026330  0.044115  0.000000      4.000000
  0.043883  0.044115  0.000000      4.000000
  0.061436  0.044115  0.000000      4.000000
  0.078989  0.044115  0.000000      4.000000
  0.008777  0.061760  0.000000      4.000000
  0.026330  0.061760  0.000000      4.000000
  0.043883  0.061760  0.000000      4.000000
  0.061436  0.061760  0.000000      4.000000
  0.078989  0.061760  0.000000      4.000000
  0.008777  0.079406  0.000000      4.000000
  0.026330  0.079406  0.000000      4.000000
  0.043883  0.079406  0.000000      4.000000
  0.061436  0.079406  0.000000      4.000000
  0.078989  0.079406  0.000000      4.000000
  0.008777  0.097052  0.000000      4.000000
  0.026330  0.097052  0.000000      4.000000
  0.043883  0.097052  0.000000      4.000000
  0.061436  0.097052  0.000000      4.000000
  0.078989  0.097052  0.000000      4.000000
  0.008777  0.114698  0.000000      4.000000
  0.026330  0.114698  0.000000      4.000000
  0.043883  0.114698  0.000000      4.000000
  0.061436  0.114698  0.000000      4.000000
  0.078989  0.114698  0.000000      4.000000
  0.008777  0.008823  0.017909      8.000000
  0.026330  0.008823  0.017909      8.000000
[...]
 k-point    23 :   0.2500 0.3214 0.0000  plane waves:    4806
 k-point    24 :   0.3500 0.3214 0.0000  plane waves:    4811
 k-point    25 :   0.4500 0.3214 0.0000  plane waves:    4800
 k-point    26 :   0.0500 0.3929 0.0000  plane waves:    4807
 k-point    27 :   0.1500 0.3929 0.0000  plane waves:    4809
 k-point    28 :   0.2500 0.3929 0.0000  plane waves:    4832
 k-point    29 :   0.3500 0.3929 0.0000  plane waves:    4825
 k-point    30 :   0.4500 0.3929 0.0000  plane waves:    4817
 k-point    31 :   0.0500 0.4643 0.0000  plane waves:    4824
 k-point    32 :   0.1500 0.4643 0.0000  plane waves:    4822
 k-point    33 :   0.2500 0.4643 0.0000  plane waves:    4820
 k-point    34 :   0.3500 0.4643 0.0000  plane waves:    4824
 k-point    35 :   0.4500 0.4643 0.0000  plane waves:    4817
 k-point    36 :   0.0500 0.0357 0.1111  plane waves:    4792
 k-point    37 :   0.1500 0.0357 0.1111  plane waves:    4796
 k-point    38 :   0.2500 0.0357 0.1111  plane waves:    4795
 k-point    39 :   0.3500 0.0357 0.1111  plane waves:    4797
 k-point    40 :   0.4500 0.0357 0.1111  plane waves:    4798
 k-point    41 :   0.0500 0.1071 0.1111  plane waves:    4784
 k-point    42 :   0.1500 0.1071 0.1111  plane waves:    4791
 k-point    43 :   0.2500 0.1071 0.1111  plane waves:    4805
 k-point    44 :   0.3500 0.1071 0.1111  plane waves:    4794
 k-point    45 :   0.4500 0.1071 0.1111  plane waves:    4793
 k-point    46 :   0.0500 0.1786 0.1111  plane waves:    4796
 k-point    47 :   0.1500 0.1786 0.1111  plane waves:    4802
 k-point    48 :   0.2500 0.1786 0.1111  plane waves:    4807
 k-point    49 :   0.3500 0.1786 0.1111  plane waves:    4800
 k-point    50 :   0.4500 0.1786 0.1111  plane waves:    4792
 k-point    51 :   0.0500 0.2500 0.1111  plane waves:    4803
 k-point    52 :   0.1500 0.2500 0.1111  plane waves:    4806
 k-point    53 :   0.2500 0.2500 0.1111  plane waves:    4802
 k-point    54 :   0.3500 0.2500 0.1111  plane waves:    4803
 k-point    55 :   0.4500 0.2500 0.1111  plane waves:    4793
 k-point    56 :   0.0500 0.3214 0.1111  plane waves:    4817
 k-point    57 :   0.1500 0.3214 0.1111  plane waves:    4810
 k-point    58 :   0.2500 0.3214 0.1111  plane waves:    4810
 k-point    59 :   0.3500 0.3214 0.1111  plane waves:    4801
 k-point    60 :   0.4500 0.3214 0.1111  plane waves:    4802
[...]
 k-point   161 :   0.0500 0.3214 0.4444  plane waves:    4814
 k-point   162 :   0.1500 0.3214 0.4444  plane waves:    4801
 k-point   163 :   0.2500 0.3214 0.4444  plane waves:    4797
 k-point   164 :   0.3500 0.3214 0.4444  plane waves:    4795
 k-point   165 :   0.4500 0.3214 0.4444  plane waves:    4796
 k-point   166 :   0.0500 0.3929 0.4444  plane waves:    4814
 k-point   167 :   0.1500 0.3929 0.4444  plane waves:    4812
 k-point   168 :   0.2500 0.3929 0.4444  plane waves:    4797
 k-point   169 :   0.3500 0.3929 0.4444  plane waves:    4793
 k-point   170 :   0.4500 0.3929 0.4444  plane waves:    4792
 k-point   171 :   0.0500 0.4643 0.4444  plane waves:    4810
 k-point   172 :   0.1500 0.4643 0.4444  plane waves:    4806
 k-point   173 :   0.2500 0.4643 0.4444  plane waves:    4799
 k-point   174 :   0.3500 0.4643 0.4444  plane waves:    4803
 k-point   175 :   0.4500 0.4643 0.4444  plane waves:    4786

 maximum and minimum number of plane-waves per node :      4832     4774

 maximum number of plane-waves:      4832
 maximum index in each direction:
   IXMAX=   11   IYMAX=    8   IZMAX=   12
   IXMIN=  -11   IYMIN=   -8   IZMIN=  -12

 serial   3D FFT for wavefunctions
 parallel 3D FFT for charge:
    minimum data exchange during FFTs selected (reduces bandwidth)

 Broyden mixing: mesh for mixing (old mesh)
   NGX = 23   NGY = 17   NGZ = 25
  (NGX  = 96   NGY  = 64   NGZ  =100)
  gives a total of   9775 points

 initial charge density was supplied:
 charge density of overlapping atoms calculated
 number of electron      42.0000000 magnetization
 keeping initial charge density in first step

 Maximum index for augmentation-charges          470 (set IRDMAX)

 First call to EWALD:  gamma=   0.338
 Maximum number of real-space cells 3x 3x 2
 Maximum number of reciprocal cells 3x 2x 3

--------------------------------------- Ionic step        1  -------------------------------------------

--------------------------------------- Iteration      1(   1)  ---------------------------------------

 eigenvalue-minimisations  : 16800
 total energy-change (2. order) : 0.7843004E+02  (-0.1997561E+04)
 number of electron      42.0000000 magnetization
 augmentation part       42.0000000 magnetization

 Free energy of the ion-electron system (eV)
  alpha Z        PSCENC =        93.73649120
  Ewald energy   TEWEN  =      -794.33677472
  -Hartree energ DENC   =      -271.87304607
  -exchange      EXHF   =         0.00000000
  -V(xc)+E(xc)   XCENC  =        97.36476967
  PAW double counting   =       608.99811708     -597.02363782
  entropy T*S    EENTRO =        -0.00195835
  eigenvalues    EBANDS =       -54.80833227
  atomic energy  EATOM  =       996.37441054
  Solvation  Ediel_sol  =         0.00000000
  free energy    TOTEN  =        78.43003925 eV

  energy without entropy =       78.43199760  energy(sigma->0) =       78.43101842

[...]

 eigenvalue-minimisations  : 23160
 total energy-change (2. order) :-0.1700879E+03  (-0.1593658E+03)
 number of electron      42.0000000 magnetization
 augmentation part       42.0000000 magnetization

[...]

 Broyden mixing:
  rms(total) = 0.12262E+01    rms(broyden)= 0.12262E+01
  rms(prec ) = 0.22506E+01
  weight for this iteration     100.00

[...]

 eigenvalues of (default mixing * dielectric matrix)
  average eigenvalue GAMMA=   2.0781
  2.0781

[...]

 eigenvalue-minimisations  : 25152
 total energy-change (2. order) : 0.1630573E+01  (-0.3178006E+00)
 number of electron      41.9999999 magnetization
 augmentation part       -0.1731519 magnetization

[...]

 Broyden mixing:
  rms(total) = 0.17769E-03    rms(broyden)= 0.17769E-03
  rms(prec ) = 0.25464E-03
  weight for this iteration     100.00

 eigenvalues of (default mixing * dielectric matrix)
  average eigenvalue GAMMA=   1.7996
  3.3044  2.4986  2.1049  1.8923  1.5125  1.0917  0.9962  0.9962

[...]

--------------------------------------- Iteration      1(  14)  ---------------------------------------

 eigenvalue-minimisations  : 20496
 total energy-change (2. order) :-0.6739829E-06  (-0.2783459E-07)
 number of electron      41.9999999 magnetization
 augmentation part       -0.1778737 magnetization

 Free energy of the ion-electron system (eV)
  alpha Z        PSCENC =        93.73649120
  Ewald energy   TEWEN  =      -794.33677472
  -Hartree energ DENC   =      -349.14977916
  -exchange      EXHF   =         0.00000000
  -V(xc)+E(xc)   XCENC  =       101.43642868
  PAW double counting   =      3701.64821040    -3690.82005193
  entropy T*S    EENTRO =        -0.00321685
  eigenvalues    EBANDS =      -149.49302285
  atomic energy  EATOM  =       996.37441054
  Solvation  Ediel_sol  =         0.00000000
  free energy    TOTEN  =       -90.60730470 eV

  energy without entropy =      -90.60408785  energy(sigma->0) =      -90.60569627

 average (electrostatic) potential at core
  the test charge radii are     0.7672
  (the norm of the test charge is              1.0000)
       1 -30.0214       2 -30.0214       3 -30.0214       4 -30.0214       5 -28.9861
       6 -28.9861       7 -28.9861       8 -28.9861       9 -29.3913      10 -29.3913
      11 -29.3913      12 -29.3913      13 -29.9607      14 -29.9607

 E-fermi :   1.8528     XC(G=0):  -9.4208     alpha+bet :-10.8020

 val. band max:        1.8506554599   @ k =   0.1500   0.1071   0.1111
 cond. band min:       1.8574001220   @ k =   0.2500   0.1071   0.0000
 fundamental gap:      0.0067446621
 Fermi energy:         1.8527841141

 k-point     1 :       0.0500    0.0357    0.0000
  band No.  band energies     occupation
      1     -12.7187      2.00000
      2     -11.5773      2.00000
      3      -8.6656      2.00000
      4      -8.4297      2.00000
      5      -6.0787      2.00000
      6      -5.1456      2.00000
      7      -4.6829      2.00000
      8      -4.2844      2.00000
      9      -4.0471      2.00000
     10      -3.5601      2.00000
     11      -2.6173      2.00000
     12      -2.3488      2.00000
     13      -1.8592      2.00000
     14      -1.1191      2.00000
     15      -0.0910      2.00000
     16      -0.0605      2.00000
     17       0.1281      2.00000
     18       0.1478      2.00000
     19       0.5375      2.00000
     20       1.9895      0.00011
     21       2.0518      0.00000
     22       2.1828      0.00000
     23       5.4158      0.00000
     24       5.7063      0.00000
     25       5.7925      0.00000
     26       5.9168      0.00000
     27       6.7664      0.00000
     28       7.5005      0.00000
     29       7.8268      0.00000
     30       8.4732      0.00000
     31       8.7294      0.00000
     32       8.8848      0.00000
     33       8.9692      0.00000
     34      10.0708      0.00000
     35      11.1352      0.00000
     36      11.2647      0.00000
     37      11.5919      0.00000
     38      11.7148      0.00000
     39      11.8815      0.00000
     40      12.3480      0.00000
     41      12.7939      0.00000
     42      13.3758      0.00000
     43      13.4032      0.00000
     44      15.2867      0.00000
     45      15.4832      0.00000
     46      15.9682      0.00000
     47      16.2504      0.00000
     48      16.2701      0.00000

[...]

 k-point   175 :       0.4500    0.4643    0.4444
  band No.  band energies     occupation
      1     -12.0161      2.00000
      2     -11.8769      2.00000
      3      -8.5560      2.00000
      4      -8.4437      2.00000
      5      -5.9379      2.00000
      6      -5.8329      2.00000
      7      -4.9097      2.00000
      8      -4.5883      2.00000
      9      -4.4296      2.00000
     10      -3.9938      2.00000
     11      -2.2081      2.00000
     12      -2.1471      2.00000
     13      -2.0867      2.00000
     14      -1.8023      2.00000
     15      -0.2448      2.00000
     16      -0.0340      2.00000
     17       0.3665      2.00000
     18       0.4541      2.00000
     19       0.5184      2.00000
     20       0.8460      2.00000
     21       1.5976      2.00000
     22       1.6970      1.99999
     23       5.8170      0.00000
     24       6.0011      0.00000
     25       6.8260      0.00000
     26       7.3433      0.00000
     27       7.4263      0.00000
     28       7.5121      0.00000
     29       9.3399      0.00000
     30       9.5198      0.00000
     31       9.7271      0.00000
     32       9.9045      0.00000
     33      10.3933      0.00000
     34      10.7383      0.00000
     35      11.1821      0.00000
     36      11.4332      0.00000
     37      11.4399      0.00000
     38      11.5448      0.00000
     39      13.0047      0.00000
     40      13.1085      0.00000
     41      13.6219      0.00000
     42      13.9694      0.00000
     43      14.1005      0.00000
     44      14.1975      0.00000
     45      14.5082      0.00000
     46      14.6613      0.00000
     47      14.8125      0.00000
     48      14.9524      0.00000

 soft charge-density along one line, spin component           1
         0         1         2         3         4         5         6         7         8         9
 total charge-density along one line

------------------------ aborting loop because EDIFF is reached ----------------------------------------

  FORCE on cell =-STRESS in cart. coord.  units (eV):
  Direction    XX          YY          ZZ          XY          YZ          ZX
  Alpha Z    93.73649    93.73649    93.73649
  Ewald     -89.89284  -557.27325  -147.17324    -0.00000    -0.00000     0.00000
  Hartree   187.02031     5.92482   156.20453    -0.00000    -0.00000     0.00000
  E(xc)    -134.73770  -135.71329  -134.70096    -0.00000    -0.00000    -0.00000
  Local    -493.77663   125.74472  -405.85912    -0.00000     0.00000    -0.00000
  n-local    -8.84196   -10.87286    -9.21339    -0.01159    -0.00733     0.07655
  augment     1.34731     1.39257     1.37558     0.00000     0.00000     0.00000
  Kinetic   445.45763   476.61186   444.16119     0.27282     0.07197    -1.16709
  Fock        0.00000     0.00000     0.00000     0.00000     0.00000     0.00000
  Total       0.31262    -0.44894    -1.46892     0.00000     0.00000     0.00000
  in kB       3.48194    -5.00026   -16.36072     0.00000     0.00000     0.00000

 VOLUME and BASIS-vectors are now :
  energy-cutoff  :      600.00
  volume of cell :      143.85
      direct lattice vectors                 reciprocal lattice vectors
     5.707254600  0.000000000  0.000000000     0.175215593  0.000000000  0.000000000
     0.000000000  4.055186220  0.000000000     0.000000000  0.246597800  0.000000000
     0.000000000  0.000000000  6.215367560     0.000000000  0.000000000  0.160891531

  length of vectors
     5.707254600  4.055186220  6.215367560     0.175215593  0.246597800  0.160891531

 FORCES acting on ions
    electron-ion (+dipol)            ewald-force                    non-local-force                 convergence-correction
   0.495E+02 -.235E-12 -.249E+02   -.513E+02 0.132E-14 0.283E+02   0.181E+01 -.102E-18 -.332E+01   -.396E-04 -.142E-15 0.545E-04
   -.495E+02 -.311E-12 0.249E+02   0.513E+02 -.165E-15 -.283E+02   -.181E+01 0.758E-19 0.332E+01   0.396E-04 -.231E-15 -.545E-04
   -.495E+02 0.946E-12 -.249E+02   0.513E+02 0.106E-14 0.283E+02   -.181E+01 0.171E-19 -.332E+01   0.396E-04 -.228E-15 0.545E-04
   0.495E+02 0.594E-13 0.249E+02   -.513E+02 -.173E-15 -.283E+02   0.181E+01 -.137E-19 0.332E+01   -.396E-04 -.635E-18 -.545E-04
   0.312E+02 -.377E-12 -.525E+02   -.340E+02 0.820E-14 0.569E+02   0.193E+01 0.203E-20 -.408E+01   -.774E-04 0.206E-15 -.957E-04
   -.312E+02 -.288E-12 0.525E+02   0.340E+02 0.714E-14 -.569E+02   -.193E+01 0.542E-20 0.408E+01   0.774E-04 -.639E-15 0.957E-04
   -.312E+02 0.678E-12 -.525E+02   0.340E+02 0.487E-14 0.569E+02   -.193E+01 -.510E-20 -.408E+01   0.774E-04 -.902E-17 -.957E-04
   0.312E+02 0.776E-13 0.525E+02   -.340E+02 0.359E-14 -.569E+02   0.193E+01 -.135E-20 0.408E+01   -.774E-04 -.464E-15 0.957E-04
   0.280E-13 -.556E+02 -.154E+02   0.135E-13 0.610E+02 0.165E+02   -.204E-17 -.538E+01 -.112E+01   0.229E-13 0.228E-04 0.170E-04
   0.121E-13 0.556E+02 0.154E+02   0.119E-13 -.610E+02 -.165E+02   0.281E-18 0.538E+01 0.112E+01   -.187E-13 -.228E-04 -.170E-04
   0.283E-13 0.556E+02 -.154E+02   0.942E-14 -.610E+02 0.165E+02   -.228E-17 0.538E+01 -.112E+01   0.230E-13 -.228E-04 0.170E-04
   0.126E-13 -.556E+02 0.154E+02   0.862E-15 0.610E+02 -.165E+02   -.173E-17 -.538E+01 0.112E+01   -.189E-13 0.228E-04 -.170E-04
   0.116E-13 0.342E-12 -.621E+02   0.438E-13 -.363E-14 0.647E+02   -.162E-18 0.699E-20 -.253E+01   -.388E-13 -.741E-16 0.186E-04
   -.246E-14 -.125E-12 0.621E+02   0.504E-13 0.256E-14 -.647E+02   -.372E-18 -.156E-19 0.253E+01   0.386E-13 -.371E-15 -.186E-04
   -.169E-11 0.939E-12 0.285E-11   -.517E-14 0.131E-13 0.142E-13   0.216E-15 0.888E-15 -.178E-14   0.114E-13 -.178E-14 -.563E-13

 POSITION                                       TOTAL-FORCE (eV/Angst)
      2.97479      2.02759      3.96516         0.025257      0.000000      0.039927
      2.73246      2.02759      2.25021        -0.025257      0.000000     -0.039927
      5.58609      2.02759      3.96516        -0.025257      0.000000      0.039927
      0.12117      2.02759      2.25021         0.025257      0.000000     -0.039927
      3.42949      2.02759      5.59327        -0.810233      0.000000      0.246625
      2.27777      2.02759      0.62210         0.810233      0.000000     -0.246625
      5.13139      2.02759      5.59327         0.810233      0.000000      0.246625
      0.57586      2.02759      0.62210        -0.810233      0.000000     -0.246625
      4.28044      3.21053      4.53554        -0.000000      0.059573     -0.072267
      1.42681      0.84465      1.67983        -0.000000     -0.059573      0.072267
      4.28044      0.84465      4.53554        -0.000000     -0.059573     -0.072267
      1.42681      3.21053      1.67983        -0.000000      0.059573      0.072267
      1.42681      2.02759      3.25480        -0.000000      0.000000      0.039317
      4.28044      2.02759      2.96057        -0.000000      0.000000     -0.039317
    total drift:                               -0.000000      0.000000      0.000000

  FREE ENERGIE OF THE ION-ELECTRON SYSTEM (eV)
  free  energy   TOTEN  =       -90.60730470 eV

  energy  without entropy=      -90.60408785  energy(sigma->0) =      -90.60569627