 vasp.6.4.3 19Mar24 (build May 31 2024 16:31:43) complex

 executed on             LinuxIFC date 2025.01.22  20:15:13

 INCAR:
   SYSTEM = PDoS
   ISTART = 1
   ICHARG = 11
   PREC = Accurate
   LORBIT = 11
   NEDOS = 4000
   ENCUT = 600
   LCHARG = .FALSE.
   LWAVE = .FALSE.
   ALGO = Normal
   EDIFF = 1E-6
   EDIFFG = -1E-3
   SIGMA = 0.1
   ISMEAR = 0
   SYMPREC = 1E-6
   NSW = 0
   IBRION = -1
   POTIM = .5

 POTCAR:    PAW_PBE B 06Sep2000
 POTCAR:    PAW_PBE B 06Sep2000
   VRHFIN =B: s2p1

   TITEL  = PAW_PBE B 06Sep2000
   POMASS =   10.811; ZVAL   =    3.000    mass and valenz
   ENMAX  =  318.614; ENMIN  =  238.960 eV

  PAW_PBE B 06Sep2000                   :

 POSCAR: o-B14
  positions in direct lattice

 exchange-correlation table for PE
   RHO(1)=    0.500       N(1)  =     2000
   RHO(2)=  100.500       N(2)  =     4000

 ion  position               nearest neighbor table
   1  0.521  0.500  0.638-  14 1.65   5 1.68  13 1.70   2 1.73   9 1.85  11 1.85
   2  0.479  0.500  0.362-  13 1.65   6 1.68  14 1.70   1 1.73  10 1.85  12 1.85
   3  0.979  0.500  0.638-  14 1.65   7 1.68  13 1.70   4 1.73   9 1.85  11 1.85
   4  0.021  0.500  0.362-  13 1.65   8 1.68  14 1.70   3 1.73  10 1.85  12 1.85
   5  0.597  0.500  0.900-   6 1.67   1 1.68   7 1.74   9 1.81  11 1.81
   6  0.403  0.500  0.100-   5 1.67   2 1.68   8 1.74  10 1.81  12 1.81
   7  0.903  0.500  0.900-   8 1.67   3 1.68   5 1.74   9 1.81  11 1.81
   8  0.097  0.500  0.100-   7 1.67   4 1.68   6 1.74  10 1.81  12 1.81
   9  0.750  0.792  0.730-  11 1.69   7 1.81   5 1.81   3 1.85   1 1.85  14 1.97
  10  0.250  0.208  0.270-  12 1.69   8 1.81   6 1.81   4 1.85   2 1.85  13 1.97
  11  0.750  0.208  0.730-   9 1.69   7 1.81   5 1.81   3 1.85   1 1.85  14 1.97
  12  0.250  0.792  0.270-  10 1.69   8 1.81   6 1.81   4 1.85   2 1.85  13 1.97
  13  0.250  0.500  0.524-   2 1.65   4 1.65   3 1.70   1 1.70  10 1.97  12 1.97
  14  0.750  0.500  0.476-   1 1.65   3 1.65   2 1.70   4 1.70   9 1.97  11 1.97

  LATTYP: Found a simple orthorhombic cell.
 ALAT       =     4.0440580961
 B/A-ratio  =     1.4097153303
 C/A-ratio  =     1.5335761871

  Lattice vectors:

 A1 = (   0.0000000000,  -4.0440580961,   0.0000000000)
 A2 = (   5.7009706948,   0.0000000000,   0.0000000000)
 A3 = (   0.0000000000,   0.0000000000,   6.2018711955)

Analysis of symmetry for initial positions (statically):
 Subroutine PRICEL returns:
 Original cell was already a primitive cell.

 Routine SETGRP: Setting up the symmetry group for a
 simple orthorhombic supercell.

 Subroutine GETGRP returns: Found  8 space group operations
 (whereof  4 operations were pure point group operations)
 out of a pool of  8 trial point group operations.

The static configuration has the point symmetry C_2h.
 The point group associated with its full space group is D_2h.

Analysis of symmetry for dynamics (positions and initial velocities):
 Subroutine PRICEL returns:
 Original cell was already a primitive cell.

 Routine SETGRP: Setting up the symmetry group for a
 simple orthorhombic supercell.

 Subroutine GETGRP returns: Found  8 space group operations
 (whereof  4 operations were pure point group operations)
 out of a pool of  8 trial point group operations.

The dynamic configuration has the point symmetry C_2h.
 The point group associated with its full space group is D_2h.

 Subroutine INISYM returns: Found  8 space group operations
 (whereof  4 operations are pure point group operations),
 and found     1 'primitive' translations

                                     Primitive cell

  volume of cell :     142.9845

  direct lattice vectors                    reciprocal lattice vectors
     5.700970695  0.000000000  0.000000000     0.175408725  0.000000000  0.000000000
     0.000000000  4.044058096  0.000000000     0.000000000  0.247276368  0.000000000
     0.000000000  0.000000000  6.201871195     0.000000000  0.000000000  0.161241659

  length of vectors
     5.700970695  4.044058096  6.201871195     0.175408725  0.247276368  0.161241659

  position of ions in fractional coordinates (direct lattice)
     0.521289885  0.500000000  0.637957702
     0.478710115  0.500000000  0.362042298
     0.978710115  0.500000000  0.637957702
     0.021289885  0.500000000  0.362042298
     0.597449662  0.500000000  0.899868316
     0.402550338  0.500000000  0.100131684
     0.902550338  0.500000000  0.899868316
     0.097449662  0.500000000  0.100131684
     0.750000000  0.791564932  0.729579396
     0.250000000  0.208435068  0.270420604
     0.750000000  0.208435068  0.729579396
     0.250000000  0.791564932  0.270420604
     0.250000000  0.500000000  0.523993035
     0.750000000  0.500000000  0.476006965

  ion indices of the primitive-cell ions
   primitive index   ion index
                 1           1
                 2           2
                 3           3
                 4           4
                 5           5
                 6           6
                 7           7
                 8           8
                 9           9
                10          10
                11          11
                12          12
                13          13
                14          14

 KPOINTS: k-points

Automatic generation of k-mesh.
 Grid dimensions read from file:
 generate k-points for:   16   23   15

 Generating k-lattice:

  Cartesian coordinates                     Fractional coordinates (reciprocal lattice)
     0.010963045  0.000000000  0.000000000     0.062500000  0.000000000  0.000000000
     0.000000000  0.010751146  0.000000000     0.000000000  0.043478261  0.000000000
     0.000000000  0.000000000  0.010749444     0.000000000  0.000000000  0.066666667

  Length of vectors
     0.010963045  0.010751146  0.010749444

  Shift w.r.t. Gamma in fractional coordinates (k-lattice)
     0.500000000  0.000000000  0.000000000

 Subroutine IBZKPT returns following result:

 Found    768 irreducible k-points:

 Following reciprocal coordinates:
            Coordinates               Weight
  0.031250  0.000000  0.000000      2.000000
  0.093750  0.000000  0.000000      2.000000
  0.156250  0.000000  0.000000      2.000000
  0.218750  0.000000  0.000000      2.000000
  0.281250  0.000000  0.000000      2.000000
  0.343750  0.000000  0.000000      2.000000
  0.406250  0.000000  0.000000      2.000000
  0.468750  0.000000  0.000000      2.000000
  0.031250  0.043478  0.000000      4.000000
  0.093750  0.043478  0.000000      4.000000
  0.156250  0.043478  0.000000      4.000000
  0.218750  0.043478  0.000000      4.000000
  0.281250  0.043478  0.000000      4.000000
  0.343750  0.043478  0.000000      4.000000
  0.406250  0.043478  0.000000      4.000000
  0.468750  0.043478  0.000000      4.000000
  0.031250  0.086957  0.000000      4.000000
  0.093750  0.086957  0.000000      4.000000
  0.156250  0.086957  0.000000      4.000000
  0.218750  0.086957  0.000000      4.000000
  0.281250  0.086957  0.000000      4.000000
  0.343750  0.086957  0.000000      4.000000
  0.406250  0.086957  0.000000      4.000000
  0.468750  0.086957  0.000000      4.000000
  0.031250  0.130435  0.000000      4.000000
  0.093750  0.130435  0.000000      4.000000
  0.156250  0.130435  0.000000      4.000000
  0.218750  0.130435  0.000000      4.000000
  0.281250  0.130435  0.000000      4.000000
  0.343750  0.130435  0.000000      4.000000
  0.406250  0.130435  0.000000      4.000000
  0.468750  0.130435  0.000000      4.000000
  0.031250  0.173913  0.000000      4.000000
  0.093750  0.173913  0.000000      4.000000
  0.156250  0.173913  0.000000      4.000000
  0.218750  0.173913  0.000000      4.000000
  0.281250  0.173913  0.000000      4.000000
  0.343750  0.173913  0.000000      4.000000
  0.406250  0.173913  0.000000      4.000000
  0.468750  0.173913  0.000000      4.000000
  0.031250  0.217391  0.000000      4.000000
  0.093750  0.217391  0.000000      4.000000
  0.156250  0.217391  0.000000      4.000000
  0.218750  0.217391  0.000000      4.000000
  0.281250  0.217391  0.000000      4.000000
  0.343750  0.217391  0.000000      4.000000
  0.406250  0.217391  0.000000      4.000000
  0.468750  0.217391  0.000000      4.000000
  0.031250  0.260870  0.000000      4.000000
  0.093750  0.260870  0.000000      4.000000
  0.156250  0.260870  0.000000      4.000000
  0.218750  0.260870  0.000000      4.000000
  0.281250  0.260870  0.000000      4.000000
  0.343750  0.260870  0.000000      4.000000
  0.406250  0.260870  0.000000      4.000000
  0.468750  0.260870  0.000000      4.000000
  0.031250  0.304348  0.000000      4.000000
  0.093750  0.304348  0.000000      4.000000
  0.156250  0.304348  0.000000      4.000000
  0.218750  0.304348  0.000000      4.000000
[...]
  0.093750  0.434783  0.466667      8.000000
  0.156250  0.434783  0.466667      8.000000
  0.218750  0.434783  0.466667      8.000000
  0.281250  0.434783  0.466667      8.000000
  0.343750  0.434783  0.466667      8.000000
  0.406250  0.434783  0.466667      8.000000
  0.468750  0.434783  0.466667      8.000000
  0.031250  0.478261  0.466667      8.000000
  0.093750  0.478261  0.466667      8.000000
  0.156250  0.478261  0.466667      8.000000
  0.218750  0.478261  0.466667      8.000000
  0.281250  0.478261  0.466667      8.000000
  0.343750  0.478261  0.466667      8.000000
  0.406250  0.478261  0.466667      8.000000
  0.468750  0.478261  0.466667      8.000000

 Following cartesian coordinates:
            Coordinates               Weight
  0.005482  0.000000  0.000000      2.000000
  0.016445  0.000000  0.000000      2.000000
  0.027408  0.000000  0.000000      2.000000
  0.038371  0.000000  0.000000      2.000000
  0.049334  0.000000  0.000000      2.000000
  0.060297  0.000000  0.000000      2.000000
  0.071260  0.000000  0.000000      2.000000
  0.082223  0.000000  0.000000      2.000000
  0.005482  0.010751  0.000000      4.000000
  0.016445  0.010751  0.000000      4.000000
  0.027408  0.010751  0.000000      4.000000
  0.038371  0.010751  0.000000      4.000000
  0.049334  0.010751  0.000000      4.000000
  0.060297  0.010751  0.000000      4.000000
  0.071260  0.010751  0.000000      4.000000
  0.082223  0.010751  0.000000      4.000000
  0.005482  0.021502  0.000000      4.000000
  0.016445  0.021502  0.000000      4.000000
  0.027408  0.021502  0.000000      4.000000
  0.038371  0.021502  0.000000      4.000000
  0.049334  0.021502  0.000000      4.000000
  0.060297  0.021502  0.000000      4.000000
  0.071260  0.021502  0.000000      4.000000
  0.082223  0.021502  0.000000      4.000000
  0.005482  0.032253  0.000000      4.000000
  0.016445  0.032253  0.000000      4.000000
  0.027408  0.032253  0.000000      4.000000
  0.038371  0.032253  0.000000      4.000000
  0.049334  0.032253  0.000000      4.000000
  0.060297  0.032253  0.000000      4.000000
  0.071260  0.032253  0.000000      4.000000
  0.082223  0.032253  0.000000      4.000000
  0.005482  0.043005  0.000000      4.000000
  0.016445  0.043005  0.000000      4.000000
  0.027408  0.043005  0.000000      4.000000
  0.038371  0.043005  0.000000      4.000000
  0.049334  0.043005  0.000000      4.000000
  0.060297  0.043005  0.000000      4.000000
[...]
 k-point    37 :   0.2812 0.1739 0.0000  plane waves:    4777
 k-point    38 :   0.3438 0.1739 0.0000  plane waves:    4774
 k-point    39 :   0.4063 0.1739 0.0000  plane waves:    4773
 k-point    40 :   0.4687 0.1739 0.0000  plane waves:    4767
 k-point    41 :   0.0312 0.2174 0.0000  plane waves:    4768
 k-point    42 :   0.0938 0.2174 0.0000  plane waves:    4772
 k-point    43 :   0.1562 0.2174 0.0000  plane waves:    4772
 k-point    44 :   0.2188 0.2174 0.0000  plane waves:    4770
 k-point    45 :   0.2812 0.2174 0.0000  plane waves:    4774
 k-point    46 :   0.3438 0.2174 0.0000  plane waves:    4768
 k-point    47 :   0.4063 0.2174 0.0000  plane waves:    4775
 k-point    48 :   0.4687 0.2174 0.0000  plane waves:    4768
 k-point    49 :   0.0312 0.2609 0.0000  plane waves:    4776
 k-point    50 :   0.0938 0.2609 0.0000  plane waves:    4782
 k-point    51 :   0.1562 0.2609 0.0000  plane waves:    4771
 k-point    52 :   0.2188 0.2609 0.0000  plane waves:    4768
 k-point    53 :   0.2812 0.2609 0.0000  plane waves:    4768
 k-point    54 :   0.3438 0.2609 0.0000  plane waves:    4767
 k-point    55 :   0.4063 0.2609 0.0000  plane waves:    4775
 k-point    56 :   0.4687 0.2609 0.0000  plane waves:    4780
 k-point    57 :   0.0312 0.3043 0.0000  plane waves:    4788
 k-point    58 :   0.0938 0.3043 0.0000  plane waves:    4778
 k-point    59 :   0.1562 0.3043 0.0000  plane waves:    4782
 k-point    60 :   0.2188 0.3043 0.0000  plane waves:    4778
[...]
 k-point   754 :   0.0938 0.4348 0.4667  plane waves:    4788
 k-point   755 :   0.1562 0.4348 0.4667  plane waves:    4784
 k-point   756 :   0.2188 0.4348 0.4667  plane waves:    4782
 k-point   757 :   0.2812 0.4348 0.4667  plane waves:    4775
 k-point   758 :   0.3438 0.4348 0.4667  plane waves:    4769
 k-point   759 :   0.4063 0.4348 0.4667  plane waves:    4761
 k-point   760 :   0.4687 0.4348 0.4667  plane waves:    4758
 k-point   761 :   0.0312 0.4783 0.4667  plane waves:    4784
 k-point   762 :   0.0938 0.4783 0.4667  plane waves:    4788
 k-point   763 :   0.1562 0.4783 0.4667  plane waves:    4785
 k-point   764 :   0.2188 0.4783 0.4667  plane waves:    4781
 k-point   765 :   0.2812 0.4783 0.4667  plane waves:    4774
 k-point   766 :   0.3438 0.4783 0.4667  plane waves:    4764
 k-point   767 :   0.4063 0.4783 0.4667  plane waves:    4758
 k-point   768 :   0.4687 0.4783 0.4667  plane waves:    4758

 maximum and minimum number of plane-waves per node :      4805     4735

 maximum number of plane-waves:      4805
 maximum index in each direction:
   IXMAX=   11   IYMAX=    8   IZMAX=   12
   IXMIN=  -11   IYMIN=   -8   IZMIN=  -12

 serial   3D FFT for wavefunctions
 parallel 3D FFT for charge:
    minimum data exchange during FFTs selected (reduces bandwidth)

 initial charge density was supplied:
 number of electron      41.9999999 magnetization
 keeping initial charge density in first step

 Maximum index for augmentation-charges          471 (set IRDMAX)

 First call to EWALD:  gamma=   0.339
 Maximum number of real-space cells 3x 3x 2
 Maximum number of reciprocal cells 3x 2x 3

--------------------------------------- Ionic step        1  -------------------------------------------

--------------------------------------- Iteration      1(   1)  ---------------------------------------

 eigenvalue-minimisations  : 73728
 total energy-change (2. order) : 0.7288569E+02  (-0.1965626E+04)
 number of electron      41.9999999 magnetization
 augmentation part       41.9999999 magnetization

 Free energy of the ion-electron system (eV)
  alpha Z        PSCENC =        94.30280740
  Ewald energy   TEWEN  =      -798.79353645
  -Hartree energ DENC   =      -346.67325013
  -exchange      EXHF   =         0.00000000
  -V(xc)+E(xc)   XCENC  =       101.54544795
  PAW double counting   =      3725.05048951    -3714.23337423
  entropy T*S    EENTRO =        -0.01057188
  eigenvalues    EBANDS =        15.32326241
  atomic energy  EATOM  =       996.37441054
  Solvation  Ediel_sol  =         0.00000000
  free energy    TOTEN  =        72.88568512 eV

  energy without entropy =       72.89625700  energy(sigma->0) =       72.89097106

[...]

 eigenvalue-minimisations  :102576
 total energy-change (2. order) :-0.1581752E+03  (-0.1469788E+03)
 number of electron      41.9999999 magnetization
 augmentation part       41.9999999 magnetization

[...]

 eigenvalue-minimisations  : 89856
 total energy-change (2. order) :-0.2598208E-01  (-0.2598088E-01)
 number of electron      41.9999999 magnetization
 augmentation part       41.9999999 magnetization

[...]

 eigenvalue-minimisations  : 86472
 total energy-change (2. order) :-0.2722132E-05  (-0.2721869E-05)
 number of electron      41.9999999 magnetization
 augmentation part       41.9999999 magnetization

[...]

--------------------------------------- Iteration      1(   7)  ---------------------------------------

 eigenvalue-minimisations  :106152
 total energy-change (2. order) :-0.3607875E-07  (-0.3629355E-07)
 number of electron      41.9999999 magnetization
 augmentation part       41.9999999 magnetization

 Free energy of the ion-electron system (eV)
  alpha Z        PSCENC =        94.30280740
  Ewald energy   TEWEN  =      -798.79353645
  -Hartree energ DENC   =      -346.67325013
  -exchange      EXHF   =         0.00000000
  -V(xc)+E(xc)   XCENC  =       101.54544795
  PAW double counting   =      3725.05048951    -3714.23337423
  entropy T*S    EENTRO =        -0.01376069
  eigenvalues    EBANDS =      -148.19913470
  atomic energy  EATOM  =       996.37441054
  Solvation  Ediel_sol  =         0.00000000
  free energy    TOTEN  =       -90.63990080 eV

  energy without entropy =      -90.62614010  energy(sigma->0) =      -90.63302045

 average (electrostatic) potential at core
  the test charge radii are     0.7672
  (the norm of the test charge is              1.0000)
       1 -29.9630       2 -29.9630       3 -29.9630       4 -29.9630       5 -28.9397
       6 -28.9397       7 -28.9397       8 -28.9397       9 -29.3446      10 -29.3446
      11 -29.3446      12 -29.3446      13 -29.9130      14 -29.9130

 E-fermi :   1.9240     XC(G=0):  -9.4486     alpha+bet :-10.8673

 val. band max:        1.9209203383   @ k =   0.2812   0.0435   0.4000
 cond. band min:       1.9245161922   @ k =   0.4063   0.1304   0.4000
 fundamental gap:      0.0035958539
 Fermi energy:         1.9240468426

 k-point     1 :       0.0312    0.0000    0.0000
  band No.  band energies     occupation
      1     -12.6978      2.00000
      2     -11.5222      2.00000
      3      -8.6589      2.00000
      4      -8.3666      2.00000
      5      -6.0500      2.00000
      6      -5.1237      2.00000
      7      -4.6917      2.00000
      8      -4.3413      2.00000
      9      -3.9317      2.00000
     10      -3.5072      2.00000
     11      -2.4037      2.00000
     12      -2.2228      2.00000
     13      -2.1118      2.00000
     14      -1.0827      2.00000
     15      -0.0160      2.00000
     16       0.0074      2.00000
     17       0.0435      2.00000
     18       0.0923      2.00000
     19       0.6680      2.00000
     20       2.1154      0.00679
     21       2.1483      0.00152
     22       2.2362      0.00001
     23       5.5097      0.00000
     24       5.7284      0.00000
     25       5.7324      0.00000
     26       5.9919      0.00000
     27       6.7202      0.00000
     28       7.5973      0.00000
     29       7.8106      0.00000
     30       8.6293      0.00000
     31       8.8633      0.00000
     32       8.8731      0.00000
     33       9.0530      0.00000
     34      10.0307      0.00000
     35      11.1956      0.00000
     36      11.3850      0.00000
     37      11.5134      0.00000
     38      11.7416      0.00000
     39      11.9701      0.00000
     40      12.2994      0.00000
     41      12.9412      0.00000
     42      13.3840      0.00000
     43      13.5075      0.00000
     44      15.4924      0.00000
     45      15.5365      0.00000
     46      15.9896      0.00000
     47      16.3166      0.00000
     48      16.4386      0.00000

[...]

 k-point   768 :       0.4687    0.4783    0.4667
  band No.  band energies     occupation
      1     -11.9477      2.00000
      2     -11.8588      2.00000
      3      -8.4986      2.00000
      4      -8.4223      2.00000
      5      -5.8938      2.00000
      6      -5.8276      2.00000
      7      -4.7357      2.00000
      8      -4.5433      2.00000
      9      -4.4387      2.00000
     10      -4.1597      2.00000
     11      -2.1992      2.00000
     12      -2.1627      2.00000
     13      -1.9950      2.00000
     14      -1.8143      2.00000
     15      -0.1363      2.00000
     16       0.0069      2.00000
     17       0.4663      2.00000
     18       0.5014      2.00000
     19       0.5065      2.00000
     20       0.7263      2.00000
     21       1.6957      1.99876
     22       1.7472      1.98763
     23       5.8819      0.00000
     24       5.9902      0.00000
     25       6.9611      0.00000
     26       7.3478      0.00000
     27       7.5486      0.00000
     28       7.6274      0.00000
     29       9.4630      0.00000
     30       9.6015      0.00000
     31       9.7871      0.00000
     32       9.8659      0.00000
     33      10.4314      0.00000
     34      10.6930      0.00000
     35      11.2586      0.00000
     36      11.4632      0.00000
     37      11.5361      0.00000
     38      11.5739      0.00000
     39      13.1428      0.00000
     40      13.1963      0.00000
     41      13.8656      0.00000
     42      14.1520      0.00000
     43      14.2379      0.00000
     44      14.2826      0.00000
     45      14.6924      0.00000
     46      14.7186      0.00000
     47      14.8279      0.00000
     48      14.9439      0.00000

 soft charge-density along one line, spin component           1
         0         1         2         3         4         5         6         7         8         9
 total charge-density along one line

------------------------ aborting loop because EDIFF is reached ----------------------------------------

 total charge

# of ion       s       p       d       tot
    1        0.709   1.368   0.000   2.077
    2        0.709   1.368   0.000   2.077
    3        0.709   1.368   0.000   2.077
    4        0.709   1.368   0.000   2.077
    5        0.716   1.299   0.000   2.015
    6        0.716   1.299   0.000   2.015
    7        0.716   1.299   0.000   2.015
    8        0.716   1.299   0.000   2.015
    9        0.702   1.231   0.000   1.932
   10        0.702   1.231   0.000   1.932
   11        0.702   1.231   0.000   1.932
   12        0.702   1.231   0.000   1.932
   13        0.716   1.378   0.000   2.093
   14        0.716   1.378   0.000   2.093
tot          9.936  18.348   0.000  28.284

  FORCE on cell =-STRESS in cart. coord.  units (eV):
  Direction    XX          YY          ZZ          XY          YZ          ZX
  Alpha Z    94.30281    94.30281    94.30281
  Ewald     -93.12989  -561.95728  -143.70902    -0.00000    -0.00000     0.00000
  Hartree   186.45811     4.66130   155.57408    -0.00000    -0.00000    -0.00000
  E(xc)    -134.85194  -135.83769  -134.82415     0.00000    -0.00000     0.00000
  Local    -490.78731   130.59950  -408.31255     0.00000    -0.00000    -0.00000
  n-local    -8.81068   -11.01908    -9.31492    -0.00337    -0.00404     0.06689
  augment     1.34885     1.39104     1.36922     0.00000     0.00000    -0.00000
  Kinetic   445.47101   477.78846   445.03402     0.22823     0.04800    -1.11385
  Fock        0.00000     0.00000     0.00000     0.00000     0.00000     0.00000
  Total       0.00096    -0.07095     0.11948     0.00000     0.00000    -0.00000
  in kB       0.01072    -0.79499     1.33881     0.00000     0.00000    -0.00000

 VOLUME and BASIS-vectors are now :
  energy-cutoff  :      600.00
  volume of cell :      142.98
      direct lattice vectors                 reciprocal lattice vectors
     5.700970695  0.000000000  0.000000000     0.175408725  0.000000000  0.000000000
     0.000000000  4.044058096  0.000000000     0.000000000  0.247276368  0.000000000
     0.000000000  0.000000000  6.201871195     0.000000000  0.000000000  0.161241659

  length of vectors
     5.700970695  4.044058096  6.201871195     0.175408725  0.247276368  0.161241659

 FORCES acting on ions
    electron-ion (+dipol)            ewald-force                    non-local-force                 convergence-correction
   0.493E+02 0.853E-12 -.247E+02   -.511E+02 0.185E-14 0.280E+02   0.183E+01 0.371E-18 -.333E+01   -.173E-01 -.157E-12 0.388E-02
   -.493E+02 -.159E-12 0.247E+02   0.511E+02 0.687E-16 -.280E+02   -.183E+01 0.926E-19 0.333E+01   0.173E-01 -.775E-13 -.388E-02
   -.493E+02 0.833E-12 -.247E+02   0.511E+02 -.149E-14 0.280E+02   -.183E+01 0.604E-19 -.333E+01   0.173E-01 0.805E-13 0.388E-02
   0.493E+02 0.837E-13 0.247E+02   -.511E+02 -.171E-14 -.280E+02   0.183E+01 -.157E-18 0.333E+01   -.173E-01 -.918E-13 -.388E-02
   0.291E+02 -.322E-12 -.508E+02   -.315E+02 0.387E-14 0.550E+02   0.247E+01 0.229E-19 -.423E+01   -.116E-01 -.272E-12 0.107E-01
   -.291E+02 0.391E-12 0.508E+02   0.315E+02 0.345E-14 -.550E+02   -.247E+01 -.151E-21 0.423E+01   0.116E-01 -.229E-12 -.107E-01
   -.291E+02 -.133E-11 -.508E+02   0.315E+02 0.431E-14 0.550E+02   -.247E+01 -.224E-19 -.423E+01   0.116E-01 -.176E-12 0.107E-01
   0.291E+02 0.402E-13 0.508E+02   -.315E+02 0.344E-14 -.550E+02   0.247E+01 0.552E-20 0.423E+01   -.116E-01 -.258E-12 -.107E-01
   0.309E-13 -.551E+02 -.161E+02   0.938E-14 0.606E+02 0.172E+02   -.201E-17 -.543E+01 -.111E+01   0.241E-13 -.232E-01 0.321E-02
   0.110E-13 0.551E+02 0.161E+02   0.312E-14 -.606E+02 -.172E+02   0.123E-17 0.543E+01 0.111E+01   0.221E-12 0.232E-01 -.321E-02
   0.305E-13 0.551E+02 -.161E+02   0.561E-14 -.606E+02 0.172E+02   0.853E-18 0.543E+01 -.111E+01   -.162E-12 0.232E-01 0.321E-02
   0.114E-13 -.551E+02 0.161E+02   -.935E-15 0.606E+02 -.172E+02   -.220E-18 -.543E+01 0.111E+01   0.260E-12 -.232E-01 -.321E-02
   0.771E-15 0.379E-12 -.622E+02   -.559E-13 0.564E-16 0.647E+02   -.104E-18 0.186E-19 -.258E+01   0.326E-12 -.445E-13 0.205E-01
   0.554E-14 -.107E-12 0.622E+02   -.571E-13 -.472E-15 -.647E+02   0.440E-19 0.351E-18 0.258E+01   -.537E-12 0.142E-14 -.205E-01
   -.127E-11 0.668E-12 0.273E-10   -.389E-13 -.415E-15 -.142E-13   0.444E-15 -.888E-15 -.888E-15   0.678E-12 -.108E-11 0.211E-11

 POSITION                                       TOTAL-FORCE (eV/Angst)
      2.97186      2.02203      3.95653         0.008853     -0.000000     -0.002633
      2.72911      2.02203      2.24534        -0.008853      0.000000      0.002633
      5.57960      2.02203      3.95653        -0.008853      0.000000     -0.002633
      0.12137      2.02203      2.24534         0.008853     -0.000000      0.002633
      3.40604      2.02203      5.58087         0.007273     -0.000000      0.003641
      2.29493      2.02203      0.62100        -0.007273     -0.000000     -0.003641
      5.14541      2.02203      5.58087        -0.007273     -0.000000      0.003641
      0.55556      2.02203      0.62100         0.007273     -0.000000     -0.003641
      4.27573      3.20113      4.52476         0.000000      0.008904      0.000654
      1.42524      0.84292      1.67711         0.000000     -0.008904     -0.000654
      4.27573      0.84292      4.52476         0.000000     -0.008904      0.000654
      1.42524      3.20113      1.67711         0.000000      0.008904     -0.000654
      1.42524      2.02203      3.24974         0.000000     -0.000000     -0.015491
      4.27573      2.02203      2.95213         0.000000      0.000000      0.015491
    total drift:                               -0.000000     -0.000000      0.000000

  FREE ENERGIE OF THE ION-ELECTRON SYSTEM (eV)
  free  energy   TOTEN  =       -90.63990080 eV

  energy  without entropy=      -90.62614010  energy(sigma->0) =      -90.63302045

 total charge

# of ion       s       p       d       tot
    1        0.709   1.368   0.000   2.077
    2        0.709   1.368   0.000   2.077
    3        0.709   1.368   0.000   2.077
    4        0.709   1.368   0.000   2.077
    5        0.716   1.299   0.000   2.015
    6        0.716   1.299   0.000   2.015
    7        0.716   1.299   0.000   2.015
    8        0.716   1.299   0.000   2.015
    9        0.702   1.231   0.000   1.932
   10        0.702   1.231   0.000   1.932
   11        0.702   1.231   0.000   1.932
   12        0.702   1.231   0.000   1.932
   13        0.716   1.378   0.000   2.093
   14        0.716   1.378   0.000   2.093
tot          9.936  18.348   0.000  28.284