 vasp.6.4.3 19Mar24 (build May 31 2024 16:31:43) complex

 executed on             LinuxIFC date 2024.11.11  15:25:59

 INCAR:
   SYSTEM = PDoS
   ISTART = 1
   ICHARG = 11
   PREC = Accurate
   LORBIT = 11
   NEDOS = 4000
   ENCUT = 600
   LCHARG = .FALSE.
   LWAVE = .FALSE.
   ALGO = Normal
   EDIFF = 1E-6
   EDIFFG = -1E-3
   SIGMA = 0.1
   ISMEAR = 0
   SYMPREC = 1E-6
   NSW = 0
   IBRION = -1
   POTIM = .5

 POTCAR:    PAW_PBE B 06Sep2000
 POTCAR:    PAW_PBE B 06Sep2000
   VRHFIN =B: s2p1

   TITEL  = PAW_PBE B 06Sep2000
   POMASS =   10.811; ZVAL   =    3.000    mass and valenz
   ENMAX  =  318.614; ENMIN  =  238.960 eV

  PAW_PBE B 06Sep2000                   :

 POSCAR: o-B14
  positions in direct lattice

 exchange-correlation table for PE
   RHO(1)=    0.500       N(1)  =     2000
   RHO(2)=  100.500       N(2)  =     4000

 ion  position               nearest neighbor table
   1  0.521  0.500  0.638-  14 1.65   5 1.68  13 1.70   2 1.73   9 1.85  11 1.85
   2  0.479  0.500  0.362-  13 1.65   6 1.68  14 1.70   1 1.73  10 1.85  12 1.85
   3  0.979  0.500  0.638-  14 1.65   7 1.68  13 1.70   4 1.73   9 1.85  11 1.85
   4  0.021  0.500  0.362-  13 1.65   8 1.68  14 1.70   3 1.73  10 1.85  12 1.85
   5  0.597  0.500  0.900-   6 1.67   1 1.68   7 1.74   9 1.81  11 1.81
   6  0.403  0.500  0.100-   5 1.67   2 1.68   8 1.74  10 1.81  12 1.81
   7  0.903  0.500  0.900-   8 1.67   3 1.68   5 1.74   9 1.81  11 1.81
   8  0.097  0.500  0.100-   7 1.67   4 1.68   6 1.74  10 1.81  12 1.81
   9  0.750  0.792  0.730-  11 1.69   7 1.81   5 1.81   3 1.85   1 1.85  14 1.97
  10  0.250  0.208  0.270-  12 1.69   8 1.81   6 1.81   4 1.85   2 1.85  13 1.97
  11  0.750  0.208  0.730-   9 1.69   7 1.81   5 1.81   3 1.85   1 1.85  14 1.97
  12  0.250  0.792  0.270-  10 1.69   8 1.81   6 1.81   4 1.85   2 1.85  13 1.97
  13  0.250  0.500  0.524-   2 1.65   4 1.65   3 1.70   1 1.70  10 1.97  12 1.97
  14  0.750  0.500  0.476-   1 1.65   3 1.65   2 1.70   4 1.70   9 1.97  11 1.97

  LATTYP: Found a simple orthorhombic cell.
 ALAT       =     4.0440580961
 B/A-ratio  =     1.4097153303
 C/A-ratio  =     1.5335761871

  Lattice vectors:

 A1 = (   0.0000000000,  -4.0440580961,   0.0000000000)
 A2 = (   5.7009706948,   0.0000000000,   0.0000000000)
 A3 = (   0.0000000000,   0.0000000000,   6.2018711955)

Analysis of symmetry for initial positions (statically):
 Subroutine PRICEL returns:
 Original cell was already a primitive cell.

 Routine SETGRP: Setting up the symmetry group for a
 simple orthorhombic supercell.

 Subroutine GETGRP returns: Found  8 space group operations
 (whereof  4 operations were pure point group operations)
 out of a pool of  8 trial point group operations.

The static configuration has the point symmetry C_2h.
 The point group associated with its full space group is D_2h.

Analysis of symmetry for dynamics (positions and initial velocities):
 Subroutine PRICEL returns:
 Original cell was already a primitive cell.

 Routine SETGRP: Setting up the symmetry group for a
 simple orthorhombic supercell.

 Subroutine GETGRP returns: Found  8 space group operations
 (whereof  4 operations were pure point group operations)
 out of a pool of  8 trial point group operations.

The dynamic configuration has the point symmetry C_2h.
 The point group associated with its full space group is D_2h.

 Subroutine INISYM returns: Found  8 space group operations
 (whereof  4 operations are pure point group operations),
 and found     1 'primitive' translations

                                     Primitive cell

  volume of cell :     142.9845

  direct lattice vectors                    reciprocal lattice vectors
     5.700970695  0.000000000  0.000000000     0.175408725  0.000000000  0.000000000
     0.000000000  4.044058096  0.000000000     0.000000000  0.247276368  0.000000000
     0.000000000  0.000000000  6.201871195     0.000000000  0.000000000  0.161241659

  length of vectors
     5.700970695  4.044058096  6.201871195     0.175408725  0.247276368  0.161241659

  position of ions in fractional coordinates (direct lattice)
     0.521289885  0.500000000  0.637957702
     0.478710115  0.500000000  0.362042298
     0.978710115  0.500000000  0.637957702
     0.021289885  0.500000000  0.362042298
     0.597449662  0.500000000  0.899868316
     0.402550338  0.500000000  0.100131684
     0.902550338  0.500000000  0.899868316
     0.097449662  0.500000000  0.100131684
     0.750000000  0.791564932  0.729579396
     0.250000000  0.208435068  0.270420604
     0.750000000  0.208435068  0.729579396
     0.250000000  0.791564932  0.270420604
     0.250000000  0.500000000  0.523993035
     0.750000000  0.500000000  0.476006965

  ion indices of the primitive-cell ions
   primitive index   ion index
                 1           1
                 2           2
                 3           3
                 4           4
                 5           5
                 6           6
                 7           7
                 8           8
                 9           9
                10          10
                11          11
                12          12
                13          13
                14          14

 KPOINTS: k-points

Automatic generation of k-mesh.
 Grid dimensions read from file:
 generate k-points for:   20   28   18

 Generating k-lattice:

  Cartesian coordinates                     Fractional coordinates (reciprocal lattice)
     0.008770436  0.000000000  0.000000000     0.050000000  0.000000000  0.000000000
     0.000000000  0.008831299  0.000000000     0.000000000  0.035714286  0.000000000
     0.000000000  0.000000000  0.008957870     0.000000000  0.000000000  0.055555556

  Length of vectors
     0.008770436  0.008831299  0.008957870

  Shift w.r.t. Gamma in fractional coordinates (k-lattice)
     0.500000000  0.500000000  0.500000000

 Subroutine IBZKPT returns following result:

 Found   1260 irreducible k-points:

 Following reciprocal coordinates:
            Coordinates               Weight
  0.025000  0.017857  0.027778      8.000000
  0.075000  0.017857  0.027778      8.000000
  0.125000  0.017857  0.027778      8.000000
  0.175000  0.017857  0.027778      8.000000
  0.225000  0.017857  0.027778      8.000000
  0.275000  0.017857  0.027778      8.000000
  0.325000  0.017857  0.027778      8.000000
  0.375000  0.017857  0.027778      8.000000
  0.425000  0.017857  0.027778      8.000000
  0.475000  0.017857  0.027778      8.000000
  0.025000  0.053571  0.027778      8.000000
  0.075000  0.053571  0.027778      8.000000
  0.125000  0.053571  0.027778      8.000000
  0.175000  0.053571  0.027778      8.000000
  0.225000  0.053571  0.027778      8.000000
  0.275000  0.053571  0.027778      8.000000
  0.325000  0.053571  0.027778      8.000000
  0.375000  0.053571  0.027778      8.000000
  0.425000  0.053571  0.027778      8.000000
  0.475000  0.053571  0.027778      8.000000
  0.025000  0.089286  0.027778      8.000000
  0.075000  0.089286  0.027778      8.000000
  0.125000  0.089286  0.027778      8.000000
  0.175000  0.089286  0.027778      8.000000
  0.225000  0.089286  0.027778      8.000000
  0.275000  0.089286  0.027778      8.000000
  0.325000  0.089286  0.027778      8.000000
  0.375000  0.089286  0.027778      8.000000
  0.425000  0.089286  0.027778      8.000000
  0.475000  0.089286  0.027778      8.000000
  0.025000  0.125000  0.027778      8.000000
  0.075000  0.125000  0.027778      8.000000
  0.125000  0.125000  0.027778      8.000000
  0.175000  0.125000  0.027778      8.000000
  0.225000  0.125000  0.027778      8.000000
  0.275000  0.125000  0.027778      8.000000
  0.325000  0.125000  0.027778      8.000000
  0.375000  0.125000  0.027778      8.000000
  0.425000  0.125000  0.027778      8.000000
  0.475000  0.125000  0.027778      8.000000
  0.025000  0.160714  0.027778      8.000000
  0.075000  0.160714  0.027778      8.000000
  0.125000  0.160714  0.027778      8.000000
  0.175000  0.160714  0.027778      8.000000
  0.225000  0.160714  0.027778      8.000000
  0.275000  0.160714  0.027778      8.000000
  0.325000  0.160714  0.027778      8.000000
  0.375000  0.160714  0.027778      8.000000
  0.425000  0.160714  0.027778      8.000000
  0.475000  0.160714  0.027778      8.000000
  0.025000  0.196429  0.027778      8.000000
  0.075000  0.196429  0.027778      8.000000
  0.125000  0.196429  0.027778      8.000000
  0.175000  0.196429  0.027778      8.000000
  0.225000  0.196429  0.027778      8.000000
  0.275000  0.196429  0.027778      8.000000
  0.325000  0.196429  0.027778      8.000000
  0.375000  0.196429  0.027778      8.000000
  0.425000  0.196429  0.027778      8.000000
  0.475000  0.196429  0.027778      8.000000
[...]
  0.275000  0.446429  0.472222      8.000000
  0.325000  0.446429  0.472222      8.000000
  0.375000  0.446429  0.472222      8.000000
  0.425000  0.446429  0.472222      8.000000
  0.475000  0.446429  0.472222      8.000000
  0.025000  0.482143  0.472222      8.000000
  0.075000  0.482143  0.472222      8.000000
  0.125000  0.482143  0.472222      8.000000
  0.175000  0.482143  0.472222      8.000000
  0.225000  0.482143  0.472222      8.000000
  0.275000  0.482143  0.472222      8.000000
  0.325000  0.482143  0.472222      8.000000
  0.375000  0.482143  0.472222      8.000000
  0.425000  0.482143  0.472222      8.000000
  0.475000  0.482143  0.472222      8.000000

 Following cartesian coordinates:
            Coordinates               Weight
  0.004385  0.004416  0.004479      8.000000
  0.013156  0.004416  0.004479      8.000000
  0.021926  0.004416  0.004479      8.000000
  0.030697  0.004416  0.004479      8.000000
  0.039467  0.004416  0.004479      8.000000
  0.048237  0.004416  0.004479      8.000000
  0.057008  0.004416  0.004479      8.000000
  0.065778  0.004416  0.004479      8.000000
  0.074549  0.004416  0.004479      8.000000
  0.083319  0.004416  0.004479      8.000000
  0.004385  0.013247  0.004479      8.000000
  0.013156  0.013247  0.004479      8.000000
  0.021926  0.013247  0.004479      8.000000
  0.030697  0.013247  0.004479      8.000000
  0.039467  0.013247  0.004479      8.000000
  0.048237  0.013247  0.004479      8.000000
  0.057008  0.013247  0.004479      8.000000
  0.065778  0.013247  0.004479      8.000000
  0.074549  0.013247  0.004479      8.000000
  0.083319  0.013247  0.004479      8.000000
  0.004385  0.022078  0.004479      8.000000
  0.013156  0.022078  0.004479      8.000000
  0.021926  0.022078  0.004479      8.000000
  0.030697  0.022078  0.004479      8.000000
  0.039467  0.022078  0.004479      8.000000
  0.048237  0.022078  0.004479      8.000000
  0.057008  0.022078  0.004479      8.000000
  0.065778  0.022078  0.004479      8.000000
  0.074549  0.022078  0.004479      8.000000
  0.083319  0.022078  0.004479      8.000000
  0.004385  0.030910  0.004479      8.000000
  0.013156  0.030910  0.004479      8.000000
  0.021926  0.030910  0.004479      8.000000
  0.030697  0.030910  0.004479      8.000000
  0.039467  0.030910  0.004479      8.000000
  0.048237  0.030910  0.004479      8.000000
  0.057008  0.030910  0.004479      8.000000
  0.065778  0.030910  0.004479      8.000000
[...]
 k-point    30 :   0.4750 0.0893 0.0278  plane waves:    4761
 k-point    31 :   0.0250 0.1250 0.0278  plane waves:    4757
 k-point    32 :   0.0750 0.1250 0.0278  plane waves:    4756
 k-point    33 :   0.1250 0.1250 0.0278  plane waves:    4764
 k-point    34 :   0.1750 0.1250 0.0278  plane waves:    4771
 k-point    35 :   0.2250 0.1250 0.0278  plane waves:    4777
 k-point    36 :   0.2750 0.1250 0.0278  plane waves:    4778
 k-point    37 :   0.3250 0.1250 0.0278  plane waves:    4767
 k-point    38 :   0.3750 0.1250 0.0278  plane waves:    4763
 k-point    39 :   0.4250 0.1250 0.0278  plane waves:    4770
 k-point    40 :   0.4750 0.1250 0.0278  plane waves:    4759
 k-point    41 :   0.0250 0.1607 0.0278  plane waves:    4748
 k-point    42 :   0.0750 0.1607 0.0278  plane waves:    4754
 k-point    43 :   0.1250 0.1607 0.0278  plane waves:    4759
 k-point    44 :   0.1750 0.1607 0.0278  plane waves:    4765
 k-point    45 :   0.2250 0.1607 0.0278  plane waves:    4774
 k-point    46 :   0.2750 0.1607 0.0278  plane waves:    4777
 k-point    47 :   0.3250 0.1607 0.0278  plane waves:    4774
 k-point    48 :   0.3750 0.1607 0.0278  plane waves:    4767
 k-point    49 :   0.4250 0.1607 0.0278  plane waves:    4770
 k-point    50 :   0.4750 0.1607 0.0278  plane waves:    4761
 k-point    51 :   0.0250 0.1964 0.0278  plane waves:    4760
 k-point    52 :   0.0750 0.1964 0.0278  plane waves:    4762
 k-point    53 :   0.1250 0.1964 0.0278  plane waves:    4763
 k-point    54 :   0.1750 0.1964 0.0278  plane waves:    4766
 k-point    55 :   0.2250 0.1964 0.0278  plane waves:    4772
 k-point    56 :   0.2750 0.1964 0.0278  plane waves:    4776
 k-point    57 :   0.3250 0.1964 0.0278  plane waves:    4774
 k-point    58 :   0.3750 0.1964 0.0278  plane waves:    4779
 k-point    59 :   0.4250 0.1964 0.0278  plane waves:    4766
 k-point    60 :   0.4750 0.1964 0.0278  plane waves:    4762
[...]
 k-point  1246 :   0.2750 0.4464 0.4722  plane waves:    4779
 k-point  1247 :   0.3250 0.4464 0.4722  plane waves:    4769
 k-point  1248 :   0.3750 0.4464 0.4722  plane waves:    4763
 k-point  1249 :   0.4250 0.4464 0.4722  plane waves:    4753
 k-point  1250 :   0.4750 0.4464 0.4722  plane waves:    4754
 k-point  1251 :   0.0250 0.4821 0.4722  plane waves:    4785
 k-point  1252 :   0.0750 0.4821 0.4722  plane waves:    4784
 k-point  1253 :   0.1250 0.4821 0.4722  plane waves:    4791
 k-point  1254 :   0.1750 0.4821 0.4722  plane waves:    4784
 k-point  1255 :   0.2250 0.4821 0.4722  plane waves:    4780
 k-point  1256 :   0.2750 0.4821 0.4722  plane waves:    4775
 k-point  1257 :   0.3250 0.4821 0.4722  plane waves:    4772
 k-point  1258 :   0.3750 0.4821 0.4722  plane waves:    4760
 k-point  1259 :   0.4250 0.4821 0.4722  plane waves:    4762
 k-point  1260 :   0.4750 0.4821 0.4722  plane waves:    4755

 maximum and minimum number of plane-waves per node :      4810     4732

 maximum number of plane-waves:      4810
 maximum index in each direction:
   IXMAX=   11   IYMAX=    8   IZMAX=   12
   IXMIN=  -11   IYMIN=   -8   IZMIN=  -12

 serial   3D FFT for wavefunctions
 parallel 3D FFT for charge:
    minimum data exchange during FFTs selected (reduces bandwidth)

 initial charge density was supplied:
 number of electron      41.9999999 magnetization
 keeping initial charge density in first step

 Maximum index for augmentation-charges          471 (set IRDMAX)

 First call to EWALD:  gamma=   0.339
 Maximum number of real-space cells 3x 3x 2
 Maximum number of reciprocal cells 3x 2x 3

--------------------------------------- Ionic step        1  -------------------------------------------

--------------------------------------- Iteration      1(   1)  ---------------------------------------

 eigenvalue-minimisations  :120960
 total energy-change (2. order) : 0.7323076E+02  (-0.1966245E+04)
 number of electron      41.9999999 magnetization
 augmentation part       41.9999999 magnetization

 Free energy of the ion-electron system (eV)
  alpha Z        PSCENC =        94.30280740
  Ewald energy   TEWEN  =      -798.79353645
  -Hartree energ DENC   =      -346.67325013
  -exchange      EXHF   =         0.00000000
  -V(xc)+E(xc)   XCENC  =       101.54544795
  PAW double counting   =      3725.05048951    -3714.23337423
  entropy T*S    EENTRO =        -0.01024624
  eigenvalues    EBANDS =        15.66800903
  atomic energy  EATOM  =       996.37441054
  Solvation  Ediel_sol  =         0.00000000
  free energy    TOTEN  =        73.23075739 eV

  energy without entropy =       73.24100363  energy(sigma->0) =       73.23588051

[...]

 eigenvalue-minimisations  :168384
 total energy-change (2. order) :-0.1585143E+03  (-0.1474169E+03)
 number of electron      41.9999999 magnetization
 augmentation part       41.9999999 magnetization

[...]

--------------------------------------- Iteration      1(   7)  ---------------------------------------

 eigenvalue-minimisations  :174912
 total energy-change (2. order) :-0.3619311E-07  (-0.3636455E-07)
 number of electron      41.9999999 magnetization
 augmentation part       41.9999999 magnetization

 Free energy of the ion-electron system (eV)
  alpha Z        PSCENC =        94.30280740
  Ewald energy   TEWEN  =      -798.79353645
  -Hartree energ DENC   =      -346.67325013
  -exchange      EXHF   =         0.00000000
  -V(xc)+E(xc)   XCENC  =       101.54544795
  PAW double counting   =      3725.05048951    -3714.23337423
  entropy T*S    EENTRO =        -0.01341489
  eigenvalues    EBANDS =      -148.19944703
  atomic energy  EATOM  =       996.37441054
  Solvation  Ediel_sol  =         0.00000000
  free energy    TOTEN  =       -90.63986733 eV

  energy without entropy =      -90.62645244  energy(sigma->0) =      -90.63315988

 average (electrostatic) potential at core
  the test charge radii are     0.7672
  (the norm of the test charge is              1.0000)
       1 -29.9630       2 -29.9630       3 -29.9630       4 -29.9630       5 -28.9397
       6 -28.9397       7 -28.9397       8 -28.9397       9 -29.3446      10 -29.3446
      11 -29.3446      12 -29.3446      13 -29.9130      14 -29.9130

 E-fermi :   1.9150     XC(G=0):  -9.4486     alpha+bet :-10.8673

 val. band max:        1.9130330734   @ k =   0.2750   0.0179   0.0278
 cond. band min:       1.9150776707   @ k =   0.4750   0.0179   0.1944
 fundamental gap:      0.0020445974
 Fermi energy:         1.9150470232

 k-point     1 :       0.0250    0.0179    0.0278
  band No.  band energies     occupation
      1     -12.6971      2.00000
      2     -11.5215      2.00000
      3      -8.6584      2.00000
      4      -8.3639      2.00000
      5      -6.0596      2.00000
      6      -5.1274      2.00000
      7      -4.6692      2.00000
      8      -4.3458      2.00000
      9      -3.9515      2.00000
     10      -3.5064      2.00000
     11      -2.3793      2.00000
     12      -2.3654      2.00000
     13      -1.9679      2.00000
     14      -1.0803      2.00000
     15      -0.0414      2.00000
     16       0.0273      2.00000
     17       0.0410      2.00000
     18       0.0794      2.00000
     19       0.6559      2.00000
     20       2.0988      0.00936
     21       2.1362      0.00176
     22       2.2680      0.00000
     23       5.5151      0.00000
     24       5.7088      0.00000
     25       5.7514      0.00000
     26       5.9763      0.00000
     27       6.7403      0.00000
     28       7.6264      0.00000
     29       7.7979      0.00000
     30       8.5999      0.00000
     31       8.8311      0.00000
     32       8.9286      0.00000
     33       9.0586      0.00000
     34      10.0560      0.00000
     35      11.2031      0.00000
     36      11.3872      0.00000
     37      11.5214      0.00000
     38      11.7216      0.00000
     39      11.9632      0.00000
     40      12.3108      0.00000
     41      12.9463      0.00000
     42      13.3439      0.00000
     43      13.5344      0.00000
     44      15.5017      0.00000
     45      15.5307      0.00000
     46      15.9376      0.00000
     47      16.3101      0.00000
     48      16.4355      0.00000

[...]

 k-point  1260 :       0.4750    0.4821    0.4722
  band No.  band energies     occupation
      1     -11.9384      2.00000
      2     -11.8672      2.00000
      3      -8.4924      2.00000
      4      -8.4313      2.00000
      5      -5.8890      2.00000
      6      -5.8362      2.00000
      7      -4.6886      2.00000
      8      -4.5388      2.00000
      9      -4.4368      2.00000
     10      -4.2111      2.00000
     11      -2.2005      2.00000
     12      -2.1719      2.00000
     13      -1.9774      2.00000
     14      -1.8330      2.00000
     15      -0.1117      2.00000
     16       0.0057      2.00000
     17       0.4758      2.00000
     18       0.5018      2.00000
     19       0.5165      2.00000
     20       0.6926      2.00000
     21       1.7026      1.99734
     22       1.7427      1.98522
     23       5.8931      0.00000
     24       5.9796      0.00000
     25       6.9942      0.00000
     26       7.3055      0.00000
     27       7.5579      0.00000
     28       7.6163      0.00000
     29       9.4882      0.00000
     30       9.6073      0.00000
     31       9.8037      0.00000
     32       9.8642      0.00000
     33      10.4455      0.00000
     34      10.6574      0.00000
     35      11.2754      0.00000
     36      11.4407      0.00000
     37      11.5327      0.00000
     38      11.5615      0.00000
     39      13.1531      0.00000
     40      13.1941      0.00000
     41      13.9071      0.00000
     42      14.1549      0.00000
     43      14.2474      0.00000
     44      14.3004      0.00000
     45      14.7050      0.00000
     46      14.7388      0.00000
     47      14.8174      0.00000
     48      14.9160      0.00000

 soft charge-density along one line, spin component           1
         0         1         2         3         4         5         6         7         8         9
 total charge-density along one line

------------------------ aborting loop because EDIFF is reached ----------------------------------------

 total charge

# of ion       s       p       d       tot
    1        0.709   1.369   0.000   2.078
    2        0.709   1.369   0.000   2.078
    3        0.709   1.369   0.000   2.078
    4        0.709   1.369   0.000   2.078
    5        0.716   1.300   0.000   2.015
    6        0.716   1.300   0.000   2.015
    7        0.716   1.300   0.000   2.015
    8        0.716   1.300   0.000   2.015
    9        0.702   1.230   0.000   1.931
   10        0.702   1.230   0.000   1.931
   11        0.702   1.230   0.000   1.931
   12        0.702   1.230   0.000   1.931
   13        0.716   1.378   0.000   2.094
   14        0.716   1.378   0.000   2.094
tot          9.936  18.348   0.000  28.285

  FORCE on cell =-STRESS in cart. coord.  units (eV):
  Direction    XX          YY          ZZ          XY          YZ          ZX
  Alpha Z    94.30281    94.30281    94.30281
  Ewald     -93.12989  -561.95728  -143.70902    -0.00000    -0.00000     0.00000
  Hartree   186.65333     4.26955   155.77013    -0.00000    -0.00000    -0.00000
  E(xc)    -134.85293  -135.83497  -134.82569     0.00000    -0.00000     0.00000
  Local    -491.13122   131.30886  -408.67836     0.00000     0.00000    -0.00000
  n-local    -8.83543   -10.96919    -9.33454    -0.00414    -0.00412     0.05544
  augment     1.34840     1.39236     1.36854     0.00000     0.00000     0.00000
  Kinetic   445.60869   477.52933   445.17193     0.23161     0.05215    -1.03860
  Fock        0.00000     0.00000     0.00000     0.00000     0.00000     0.00000
  Total      -0.03623     0.04146     0.06579     0.00000     0.00000    -0.00000
  in kB      -0.40602     0.46460     0.73719     0.00000     0.00000    -0.00000

 VOLUME and BASIS-vectors are now :
  energy-cutoff  :      600.00
  volume of cell :      142.98
      direct lattice vectors                 reciprocal lattice vectors
     5.700970695  0.000000000  0.000000000     0.175408725  0.000000000  0.000000000
     0.000000000  4.044058096  0.000000000     0.000000000  0.247276368  0.000000000
     0.000000000  0.000000000  6.201871195     0.000000000  0.000000000  0.161241659

  length of vectors
     5.700970695  4.044058096  6.201871195     0.175408725  0.247276368  0.161241659

 FORCES acting on ions
    electron-ion (+dipol)            ewald-force                    non-local-force                 convergence-correction
   0.492E+02 0.925E-12 -.247E+02   -.511E+02 0.185E-14 0.280E+02   0.184E+01 0.209E-18 -.334E+01   0.426E-02 -.157E-12 -.132E-02
   -.492E+02 -.222E-12 0.247E+02   0.511E+02 0.687E-16 -.280E+02   -.184E+01 -.205E-18 0.334E+01   -.426E-02 -.772E-13 0.132E-02
   -.492E+02 0.907E-12 -.247E+02   0.511E+02 -.149E-14 0.280E+02   -.184E+01 -.176E-18 -.334E+01   -.426E-02 0.802E-13 -.132E-02
   0.492E+02 0.153E-13 0.247E+02   -.511E+02 -.171E-14 -.280E+02   0.184E+01 0.215E-18 0.334E+01   0.426E-02 -.918E-13 0.132E-02
   0.291E+02 -.338E-12 -.508E+02   -.315E+02 0.387E-14 0.550E+02   0.247E+01 -.925E-19 -.423E+01   0.218E-02 -.271E-12 -.275E-02
   -.291E+02 0.414E-12 0.508E+02   0.315E+02 0.345E-14 -.550E+02   -.247E+01 0.256E-19 0.423E+01   -.218E-02 -.229E-12 0.275E-02
   -.291E+02 -.134E-11 -.508E+02   0.315E+02 0.431E-14 0.550E+02   -.247E+01 0.841E-19 -.423E+01   -.218E-02 -.175E-12 -.275E-02
   0.291E+02 0.512E-13 0.508E+02   -.315E+02 0.344E-14 -.550E+02   0.247E+01 -.553E-19 0.423E+01   0.218E-02 -.258E-12 0.275E-02
   0.266E-13 -.552E+02 -.161E+02   0.938E-14 0.606E+02 0.172E+02   -.934E-19 -.542E+01 -.111E+01   0.236E-13 0.411E-02 -.116E-02
   0.143E-13 0.552E+02 0.161E+02   0.312E-14 -.606E+02 -.172E+02   -.817E-18 0.542E+01 0.111E+01   0.222E-12 -.411E-02 0.116E-02
   0.264E-13 0.552E+02 -.161E+02   0.561E-14 -.606E+02 0.172E+02   0.211E-17 0.542E+01 -.111E+01   -.162E-12 -.411E-02 -.116E-02
   0.148E-13 -.552E+02 0.161E+02   -.935E-15 0.606E+02 -.172E+02   0.248E-17 -.542E+01 0.111E+01   0.261E-12 0.411E-02 0.116E-02
   0.445E-14 0.360E-12 -.621E+02   -.559E-13 0.564E-16 0.647E+02   0.215E-18 0.332E-18 -.258E+01   0.327E-12 -.447E-13 -.607E-02
   0.203E-14 -.894E-13 0.621E+02   -.571E-13 -.472E-15 -.647E+02   -.198E-18 0.459E-19 0.258E+01   -.537E-12 0.162E-14 0.607E-02
   -.121E-11 0.624E-12 0.275E-10   -.389E-13 -.415E-15 -.142E-13   -.440E-15 0.889E-15 0.888E-15   0.680E-12 -.108E-11 0.212E-11

 POSITION                                       TOTAL-FORCE (eV/Angst)
      2.97186      2.02203      3.95653        -0.006237     -0.000000      0.009838
      2.72911      2.02203      2.24534         0.006237     -0.000000     -0.009838
      5.57960      2.02203      3.95653         0.006237     -0.000000      0.009838
      0.12137      2.02203      2.24534        -0.006237      0.000000     -0.009838
      3.40604      2.02203      5.58087         0.000756      0.000000      0.005573
      2.29493      2.02203      0.62100        -0.000756      0.000000     -0.005573
      5.14541      2.02203      5.58087        -0.000756      0.000000      0.005573
      0.55556      2.02203      0.62100         0.000756     -0.000000     -0.005573
      4.27573      3.20113      4.52476         0.000000     -0.006462     -0.001072
      1.42524      0.84292      1.67711         0.000000      0.006462      0.001072
      4.27573      0.84292      4.52476         0.000000      0.006462     -0.001072
      1.42524      3.20113      1.67711        -0.000000     -0.006462      0.001072
      1.42524      2.02203      3.24974        -0.000000     -0.000000      0.002493
      4.27573      2.02203      2.95213        -0.000000     -0.000000     -0.002493
    total drift:                               -0.000000     -0.000000      0.000000

  FREE ENERGIE OF THE ION-ELECTRON SYSTEM (eV)
  free  energy   TOTEN  =       -90.63986733 eV

  energy  without entropy=      -90.62645244  energy(sigma->0) =      -90.63315988

 total charge

# of ion       s       p       d       tot
    1        0.709   1.369   0.000   2.078
    2        0.709   1.369   0.000   2.078
    3        0.709   1.369   0.000   2.078
    4        0.709   1.369   0.000   2.078
    5        0.716   1.300   0.000   2.015
    6        0.716   1.300   0.000   2.015
    7        0.716   1.300   0.000   2.015
    8        0.716   1.300   0.000   2.015
    9        0.702   1.230   0.000   1.931
   10        0.702   1.230   0.000   1.931
   11        0.702   1.230   0.000   1.931
   12        0.702   1.230   0.000   1.931
   13        0.716   1.378   0.000   2.094
   14        0.716   1.378   0.000   2.094
tot          9.936  18.348   0.000  28.285