 vasp.6.4.3 19Mar24 (build May 31 2024 16:31:43) complex

 executed on             LinuxIFC date 2024.11.11  16:45:32

 INCAR:
   SYSTEM = BS
   ISTART = 0
   ICHARG = 11
   PREC = Accurate
   LORBIT = 11
   ENCUT = 600
   ALGO = Normal
   NELM = 64
   EDIFF = 1E-6
   EDIFFG = -1E-3
   SIGMA = 0.1
   ISMEAR = 0
   GGA = PE
   IVDW = 12

 POTCAR:    PAW_PBE B 06Sep2000
 POTCAR:    PAW_PBE B 06Sep2000
   VRHFIN =B: s2p1

   TITEL  = PAW_PBE B 06Sep2000
   POMASS =   10.811; ZVAL   =    3.000    mass and valenz
   ENMAX  =  318.614; ENMIN  =  238.960 eV

  PAW_PBE B 06Sep2000                   :

 POSCAR: o-B14
  positions in direct lattice
 IVDW         = 12
 VDW_S6       =    1.0000
 VDW_S8       =    0.7875
 VDW_A1       =    0.4289
 VDW_A2       =    4.4407
 VDW_RADIUS   =   50.2022 A
 VDW_CNRADIUS =   21.1671 A

 exchange-correlation table for PE
   RHO(1)=    0.500       N(1)  =     2000
   RHO(2)=  100.500       N(2)  =     4000

 ion  position               nearest neighbor table
   1  0.521  0.500  0.638-  14 1.65   5 1.68  13 1.70   2 1.73   9 1.85  11 1.85
   2  0.479  0.500  0.362-  13 1.65   6 1.68  14 1.70   1 1.73  10 1.85  12 1.85
   3  0.979  0.500  0.638-  14 1.65   7 1.68  13 1.70   4 1.73   9 1.85  11 1.85
   4  0.021  0.500  0.362-  13 1.65   8 1.68  14 1.70   3 1.73  10 1.85  12 1.85
   5  0.597  0.500  0.900-   6 1.67   1 1.68   7 1.74   9 1.81  11 1.81
   6  0.403  0.500  0.100-   5 1.67   2 1.68   8 1.74  10 1.81  12 1.81
   7  0.903  0.500  0.900-   8 1.67   3 1.68   5 1.74   9 1.81  11 1.81
   8  0.097  0.500  0.100-   7 1.67   4 1.68   6 1.74  10 1.81  12 1.81
   9  0.750  0.792  0.730-  11 1.69   7 1.81   5 1.81   3 1.85   1 1.85  14 1.97
  10  0.250  0.208  0.270-  12 1.69   8 1.81   6 1.81   4 1.85   2 1.85  13 1.97
  11  0.750  0.208  0.730-   9 1.69   7 1.81   5 1.81   3 1.85   1 1.85  14 1.97
  12  0.250  0.792  0.270-  10 1.69   8 1.81   6 1.81   4 1.85   2 1.85  13 1.97
  13  0.250  0.500  0.524-   2 1.65   4 1.65   3 1.70   1 1.70  10 1.97  12 1.97
  14  0.750  0.500  0.476-   1 1.65   3 1.65   2 1.70   4 1.70   9 1.97  11 1.97

  LATTYP: Found a simple orthorhombic cell.
 ALAT       =     4.0440580961
 B/A-ratio  =     1.4097153303
 C/A-ratio  =     1.5335761871

  Lattice vectors:

 A1 = (   0.0000000000,  -4.0440580961,   0.0000000000)
 A2 = (   5.7009706948,   0.0000000000,   0.0000000000)
 A3 = (   0.0000000000,   0.0000000000,   6.2018711955)

Analysis of symmetry for initial positions (statically):
 Subroutine PRICEL returns:
 Original cell was already a primitive cell.

 Routine SETGRP: Setting up the symmetry group for a
 simple orthorhombic supercell.

 Subroutine GETGRP returns: Found  8 space group operations
 (whereof  4 operations were pure point group operations)
 out of a pool of  8 trial point group operations.

The static configuration has the point symmetry C_2h.
 The point group associated with its full space group is D_2h.

Analysis of symmetry for dynamics (positions and initial velocities):
 Subroutine PRICEL returns:
 Original cell was already a primitive cell.

 Routine SETGRP: Setting up the symmetry group for a
 simple orthorhombic supercell.

 Subroutine GETGRP returns: Found  8 space group operations
 (whereof  4 operations were pure point group operations)
 out of a pool of  8 trial point group operations.

The dynamic configuration has the point symmetry C_2h.
 The point group associated with its full space group is D_2h.

 Subroutine INISYM returns: Found  8 space group operations
 (whereof  4 operations are pure point group operations),
 and found     1 'primitive' translations

                                     Primitive cell

  volume of cell :     142.9845

  direct lattice vectors                    reciprocal lattice vectors
     5.700970695  0.000000000  0.000000000     0.175408725  0.000000000  0.000000000
     0.000000000  4.044058096  0.000000000     0.000000000  0.247276368  0.000000000
     0.000000000  0.000000000  6.201871195     0.000000000  0.000000000  0.161241659

  length of vectors
     5.700970695  4.044058096  6.201871195     0.175408725  0.247276368  0.161241659

  position of ions in fractional coordinates (direct lattice)
     0.521289885  0.500000000  0.637957702
     0.478710115  0.500000000  0.362042298
     0.978710115  0.500000000  0.637957702
     0.021289885  0.500000000  0.362042298
     0.597449662  0.500000000  0.899868316
     0.402550338  0.500000000  0.100131684
     0.902550338  0.500000000  0.899868316
     0.097449662  0.500000000  0.100131684
     0.750000000  0.791564932  0.729579396
     0.250000000  0.208435068  0.270420604
     0.750000000  0.208435068  0.729579396
     0.250000000  0.791564932  0.270420604
     0.250000000  0.500000000  0.523993035
     0.750000000  0.500000000  0.476006965

  ion indices of the primitive-cell ions
   primitive index   ion index
                 1           1
                 2           2
                 3           3
                 4           4
                 5           5
                 6           6
                 7           7
                 8           8
                 9           9
                10          10
                11          11
                12          12
                13          13
                14          14

 KPOINTS: K-points

Interpolating k-points between supplied coordinates.

 Line segments in fractional coordinates (reciprocal lattice):
    0.000000  0.000000  0.000000  ...  0.000000  0.000000  0.500000
    0.000000  0.000000  0.500000  ...  0.000000  0.500000  0.500000
    0.000000  0.500000  0.500000  ...  0.000000  0.500000  0.000000
    0.000000  0.500000  0.000000  ...  0.500000  0.500000  0.000000
    0.500000  0.500000  0.000000  ...  0.500000  0.000000  0.000000
    0.500000  0.000000  0.000000  ...  0.500000  0.000000  0.500000
    0.500000  0.000000  0.500000  ...  0.500000  0.500000  0.500000

 Generated    24 points on each line segment, for a total of    168 k-points:

 Following reciprocal coordinates:
            Coordinates               Weight
  0.000000  0.000000  0.000000      0.005952
  0.000000  0.000000  0.021739      0.005952
  0.000000  0.000000  0.043478      0.005952
  0.000000  0.000000  0.065217      0.005952
  0.000000  0.000000  0.086957      0.005952
  0.000000  0.000000  0.108696      0.005952
  0.000000  0.000000  0.130435      0.005952
  0.000000  0.000000  0.152174      0.005952
  0.000000  0.000000  0.173913      0.005952
  0.000000  0.000000  0.195652      0.005952
  0.000000  0.000000  0.217391      0.005952
  0.000000  0.000000  0.239130      0.005952
  0.000000  0.000000  0.260870      0.005952
  0.000000  0.000000  0.282609      0.005952
  0.000000  0.000000  0.304348      0.005952
  0.000000  0.000000  0.326087      0.005952
  0.000000  0.000000  0.347826      0.005952
  0.000000  0.000000  0.369565      0.005952
  0.000000  0.000000  0.391304      0.005952
  0.000000  0.000000  0.413043      0.005952
  0.000000  0.000000  0.434783      0.005952
  0.000000  0.000000  0.456522      0.005952
  0.000000  0.000000  0.478261      0.005952
  0.000000  0.000000  0.500000      0.005952
  0.000000  0.000000  0.500000      0.005952
  0.000000  0.021739  0.500000      0.005952
  0.000000  0.043478  0.500000      0.005952
  0.000000  0.065217  0.500000      0.005952
  0.000000  0.086957  0.500000      0.005952
  0.000000  0.108696  0.500000      0.005952
  0.000000  0.130435  0.500000      0.005952
  0.000000  0.152174  0.500000      0.005952
  0.000000  0.173913  0.500000      0.005952
  0.000000  0.195652  0.500000      0.005952
  0.000000  0.217391  0.500000      0.005952
  0.000000  0.239130  0.500000      0.005952
  0.000000  0.260870  0.500000      0.005952
  0.000000  0.282609  0.500000      0.005952
  0.000000  0.304348  0.500000      0.005952
  0.000000  0.326087  0.500000      0.005952
  0.000000  0.347826  0.500000      0.005952
  0.000000  0.369565  0.500000      0.005952
  0.000000  0.391304  0.500000      0.005952
  0.000000  0.413043  0.500000      0.005952
  0.000000  0.434783  0.500000      0.005952
  0.000000  0.456522  0.500000      0.005952
  0.000000  0.478261  0.500000      0.005952
  0.000000  0.500000  0.500000      0.005952
  0.000000  0.500000  0.500000      0.005952
  0.000000  0.500000  0.478261      0.005952
  0.000000  0.500000  0.456522      0.005952
  0.000000  0.500000  0.434783      0.005952
  0.000000  0.500000  0.413043      0.005952
  0.000000  0.500000  0.391304      0.005952
  0.000000  0.500000  0.369565      0.005952
  0.000000  0.500000  0.347826      0.005952
  0.000000  0.500000  0.326087      0.005952
  0.000000  0.500000  0.304348      0.005952
  0.000000  0.500000  0.282609      0.005952
  0.000000  0.500000  0.260870      0.005952
[...]
  0.500000  0.195652  0.500000      0.005952
  0.500000  0.217391  0.500000      0.005952
  0.500000  0.239130  0.500000      0.005952
  0.500000  0.260870  0.500000      0.005952
  0.500000  0.282609  0.500000      0.005952
  0.500000  0.304348  0.500000      0.005952
  0.500000  0.326087  0.500000      0.005952
  0.500000  0.347826  0.500000      0.005952
  0.500000  0.369565  0.500000      0.005952
  0.500000  0.391304  0.500000      0.005952
  0.500000  0.413043  0.500000      0.005952
  0.500000  0.434783  0.500000      0.005952
  0.500000  0.456522  0.500000      0.005952
  0.500000  0.478261  0.500000      0.005952
  0.500000  0.500000  0.500000      0.005952

 Following cartesian coordinates:
            Coordinates               Weight
  0.000000  0.000000  0.000000      0.005952
  0.000000  0.000000  0.003505      0.005952
  0.000000  0.000000  0.007011      0.005952
  0.000000  0.000000  0.010516      0.005952
  0.000000  0.000000  0.014021      0.005952
  0.000000  0.000000  0.017526      0.005952
  0.000000  0.000000  0.021032      0.005952
  0.000000  0.000000  0.024537      0.005952
  0.000000  0.000000  0.028042      0.005952
  0.000000  0.000000  0.031547      0.005952
  0.000000  0.000000  0.035053      0.005952
  0.000000  0.000000  0.038558      0.005952
  0.000000  0.000000  0.042063      0.005952
  0.000000  0.000000  0.045568      0.005952
  0.000000  0.000000  0.049074      0.005952
  0.000000  0.000000  0.052579      0.005952
  0.000000  0.000000  0.056084      0.005952
  0.000000  0.000000  0.059589      0.005952
  0.000000  0.000000  0.063095      0.005952
  0.000000  0.000000  0.066600      0.005952
  0.000000  0.000000  0.070105      0.005952
  0.000000  0.000000  0.073610      0.005952
  0.000000  0.000000  0.077116      0.005952
  0.000000  0.000000  0.080621      0.005952
  0.000000  0.000000  0.080621      0.005952
  0.000000  0.005376  0.080621      0.005952
  0.000000  0.010751  0.080621      0.005952
  0.000000  0.016127  0.080621      0.005952
  0.000000  0.021502  0.080621      0.005952
  0.000000  0.026878  0.080621      0.005952
  0.000000  0.032253  0.080621      0.005952
  0.000000  0.037629  0.080621      0.005952
  0.000000  0.043005  0.080621      0.005952
  0.000000  0.048380  0.080621      0.005952
  0.000000  0.053756  0.080621      0.005952
  0.000000  0.059131  0.080621      0.005952
[...]
 k-point    35 :   0.0000 0.2174 0.5000  plane waves:    4774
 k-point    36 :   0.0000 0.2391 0.5000  plane waves:    4776
 k-point    37 :   0.0000 0.2609 0.5000  plane waves:    4782
 k-point    38 :   0.0000 0.2826 0.5000  plane waves:    4790
 k-point    39 :   0.0000 0.3043 0.5000  plane waves:    4788
 k-point    40 :   0.0000 0.3261 0.5000  plane waves:    4788
 k-point    41 :   0.0000 0.3478 0.5000  plane waves:    4804
 k-point    42 :   0.0000 0.3696 0.5000  plane waves:    4804
 k-point    43 :   0.0000 0.3913 0.5000  plane waves:    4796
 k-point    44 :   0.0000 0.4130 0.5000  plane waves:    4784
 k-point    45 :   0.0000 0.4348 0.5000  plane waves:    4778
 k-point    46 :   0.0000 0.4565 0.5000  plane waves:    4782
 k-point    47 :   0.0000 0.4783 0.5000  plane waves:    4780
 k-point    48 :   0.0000 0.5000 0.5000  plane waves:    4776
 k-point    49 :   0.0000 0.5000 0.5000  plane waves:    4776
 k-point    50 :   0.0000 0.5000 0.4783  plane waves:    4780
 k-point    51 :   0.0000 0.5000 0.4565  plane waves:    4792
 k-point    52 :   0.0000 0.5000 0.4348  plane waves:    4784
 k-point    53 :   0.0000 0.5000 0.4130  plane waves:    4776
 k-point    54 :   0.0000 0.5000 0.3913  plane waves:    4770
 k-point    55 :   0.0000 0.5000 0.3696  plane waves:    4774
 k-point    56 :   0.0000 0.5000 0.3478  plane waves:    4786
 k-point    57 :   0.0000 0.5000 0.3261  plane waves:    4786
 k-point    58 :   0.0000 0.5000 0.3043  plane waves:    4794
 k-point    59 :   0.0000 0.5000 0.2826  plane waves:    4800
 k-point    60 :   0.0000 0.5000 0.2609  plane waves:    4800
[...]
 k-point   154 :   0.5000 0.1957 0.5000  plane waves:    4772
 k-point   155 :   0.5000 0.2174 0.5000  plane waves:    4780
 k-point   156 :   0.5000 0.2391 0.5000  plane waves:    4772
 k-point   157 :   0.5000 0.2609 0.5000  plane waves:    4776
 k-point   158 :   0.5000 0.2826 0.5000  plane waves:    4772
 k-point   159 :   0.5000 0.3043 0.5000  plane waves:    4768
 k-point   160 :   0.5000 0.3261 0.5000  plane waves:    4772
 k-point   161 :   0.5000 0.3478 0.5000  plane waves:    4768
 k-point   162 :   0.5000 0.3696 0.5000  plane waves:    4760
 k-point   163 :   0.5000 0.3913 0.5000  plane waves:    4768
 k-point   164 :   0.5000 0.4130 0.5000  plane waves:    4760
 k-point   165 :   0.5000 0.4348 0.5000  plane waves:    4752
 k-point   166 :   0.5000 0.4565 0.5000  plane waves:    4752
 k-point   167 :   0.5000 0.4783 0.5000  plane waves:    4756
 k-point   168 :   0.5000 0.5000 0.5000  plane waves:    4752

 maximum and minimum number of plane-waves per node :      4818     4737

 maximum number of plane-waves:      4818
 maximum index in each direction:
   IXMAX=   11   IYMAX=    8   IZMAX=   12
   IXMIN=  -11   IYMIN=   -8   IZMIN=  -12

 serial   3D FFT for wavefunctions
 parallel 3D FFT for charge:
    minimum data exchange during FFTs selected (reduces bandwidth)

 initial charge density was supplied:
 number of electron      41.9999999 magnetization
 keeping initial charge density in first step

 Maximum index for augmentation-charges          471 (set IRDMAX)

 First call to EWALD:  gamma=   0.339
 Maximum number of real-space cells 3x 3x 2
 Maximum number of reciprocal cells 3x 2x 3

--------------------------------------- Ionic step        1  -------------------------------------------

--------------------------------------- Iteration      1(   1)  ---------------------------------------

 eigenvalue-minimisations  : 16128
 total energy-change (2. order) : 0.7310349E+02  (-0.1960742E+04)
 number of electron      41.9999999 magnetization
 augmentation part       41.9999999 magnetization

 Free energy of the ion-electron system (eV)
  alpha Z        PSCENC =        94.30280740
  Ewald energy   TEWEN  =      -798.79353645
  -Hartree energ DENC   =      -346.67212446
  -exchange      EXHF   =         0.00000000
  -V(xc)+E(xc)   XCENC  =       101.54542225
  PAW double counting   =      3725.05048951    -3714.23337423
  entropy T*S    EENTRO =        -0.01018648
  eigenvalues    EBANDS =        15.53957951
  atomic energy  EATOM  =       996.37441054
  Solvation  Ediel_sol  =         0.00000000
  free energy    TOTEN  =        73.10348758 eV

  energy without entropy =       73.11367406  energy(sigma->0) =       73.10858082

[...]

 eigenvalue-minimisations  : 22416
 total energy-change (2. order) :-0.1585562E+03  (-0.1474225E+03)
 number of electron      41.9999999 magnetization
 augmentation part       41.9999999 magnetization

[...]

--------------------------------------- Iteration      1(   7)  ---------------------------------------

 eigenvalue-minimisations  : 23280
 total energy-change (2. order) :-0.3773562E-07  (-0.3757668E-07)
 number of electron      41.9999999 magnetization
 augmentation part       41.9999999 magnetization

 Free energy of the ion-electron system (eV)
  alpha Z        PSCENC =        94.30280740
  Ewald energy   TEWEN  =      -798.79353645
  -Hartree energ DENC   =      -346.67212446
  -exchange      EXHF   =         0.00000000
  -V(xc)+E(xc)   XCENC  =       101.54542225
  PAW double counting   =      3725.05048951    -3714.23337423
  entropy T*S    EENTRO =        -0.01260600
  eigenvalues    EBANDS =      -148.35586805
  atomic energy  EATOM  =       996.37441054
  Solvation  Ediel_sol  =         0.00000000
  free energy    TOTEN  =       -90.79437951 eV

  energy without entropy =      -90.78177350  energy(sigma->0) =      -90.78807651

 average (electrostatic) potential at core
  the test charge radii are     0.7672
  (the norm of the test charge is              1.0000)
       1 -29.9631       2 -29.9631       3 -29.9631       4 -29.9631       5 -28.9396
       6 -28.9396       7 -28.9396       8 -28.9396       9 -29.3447      10 -29.3447
      11 -29.3447      12 -29.3447      13 -29.9131      14 -29.9131

 E-fermi :   2.1489     XC(G=0):  -9.4486     alpha+bet :-10.8673

 val. band max:        2.1455996501   @ k =   0.0000   0.0000   0.0435
 cond. band min:       2.1514908970   @ k =   0.0000   0.0000   0.0217
 fundamental gap:      0.0058912469
 Fermi energy:         2.1489303133

 k-point     1 :       0.0000    0.0000    0.0000
  band No.  band energies     occupation
      1     -12.7000      2.00000
      2     -11.5184      2.00000
      3      -8.6602      2.00000
      4      -8.3673      2.00000
      5      -6.0546      2.00000
      6      -5.0926      2.00000
      7      -4.6807      2.00000
      8      -4.3776      2.00000
      9      -3.9348      2.00000
     10      -3.5278      2.00000
     11      -2.4047      2.00000
     12      -2.2222      2.00000
     13      -2.1044      2.00000
     14      -1.0664      2.00000
     15      -0.0203      2.00000
     16       0.0138      2.00000
     17       0.0412      2.00000
     18       0.0897      2.00000
     19       0.6731      2.00000
     20       2.1195      1.32244
     21       2.1535      0.94896
     22       2.2423      0.18670
     23       5.5052      0.00000
     24       5.7269      0.00000
     25       5.7350      0.00000
     26       5.9715      0.00000
     27       6.7246      0.00000
     28       7.6981      0.00000
     29       7.7191      0.00000
     30       8.6219      0.00000
     31       8.8502      0.00000
     32       8.8550      0.00000
     33       9.0512      0.00000
     34      10.0266      0.00000
     35      11.1920      0.00000
     36      11.4064      0.00000
     37      11.5179      0.00000
     38      11.7820      0.00000
     39      11.9586      0.00000
     40      12.2948      0.00000
     41      12.9215      0.00000
     42      13.3422      0.00000
     43      13.5277      0.00000
     44      15.5237      0.00000
     45      15.5817      0.00000
     46      15.9208      0.00000
     47      16.3102      0.00000
     48      16.5383      0.00000

[...]

 k-point   168 :       0.5000    0.5000    0.5000
  band No.  band energies     occupation
      1     -11.9019      2.00000
      2     -11.9019      2.00000
      3      -8.4647      2.00000
      4      -8.4647      2.00000
      5      -5.8667      2.00000
      6      -5.8667      2.00000
      7      -4.5350      2.00000
      8      -4.5350      2.00000
      9      -4.4001      2.00000
     10      -4.4001      2.00000
     11      -2.1969      2.00000
     12      -2.1969      2.00000
     13      -1.9063      2.00000
     14      -1.9063      2.00000
     15      -0.0310      2.00000
     16      -0.0310      2.00000
     17       0.4970      2.00000
     18       0.4970      2.00000
     19       0.5840      2.00000
     20       0.5840      2.00000
     21       1.7251      2.00000
     22       1.7251      2.00000
     23       5.9359      0.00000
     24       5.9359      0.00000
     25       7.1420      0.00000
     26       7.1420      0.00000
     27       7.5853      0.00000
     28       7.5853      0.00000
     29       9.5741      0.00000
     30       9.5741      0.00000
     31       9.8580      0.00000
     32       9.8580      0.00000
     33      10.5251      0.00000
     34      10.5251      0.00000
     35      11.3513      0.00000
     36      11.3513      0.00000
     37      11.5315      0.00000
     38      11.5315      0.00000
     39      13.1822      0.00000
     40      13.1822      0.00000
     41      14.0523      0.00000
     42      14.0523      0.00000
     43      14.3373      0.00000
     44      14.3373      0.00000
     45      14.7579      0.00000
     46      14.7579      0.00000
     47      14.8173      0.00000
     48      14.8174      0.00000

 soft charge-density along one line, spin component           1
         0         1         2         3         4         5         6         7         8         9
 total charge-density along one line

------------------------ aborting loop because EDIFF is reached ----------------------------------------

 total charge

# of ion       s       p       d       tot
    1        0.709   1.381   0.000   2.090
    2        0.709   1.381   0.000   2.090
    3        0.709   1.381   0.000   2.090
    4        0.709   1.381   0.000   2.090
    5        0.716   1.308   0.000   2.024
    6        0.716   1.308   0.000   2.024
    7        0.716   1.308   0.000   2.024
    8        0.716   1.308   0.000   2.024
    9        0.700   1.203   0.000   1.903
   10        0.700   1.203   0.000   1.903
   11        0.700   1.203   0.000   1.903
   12        0.700   1.203   0.000   1.903
   13        0.713   1.399   0.000   2.112
   14        0.713   1.399   0.000   2.112
tot          9.929  18.362   0.000  28.291

         DFTD3 V3.0 Rev 1
 DF pbe
 parameters
 k1-k3        =   16.0000    1.3333   -4.0000
 Edisp (eV)   -1.96230

 E6    (eV) :    -1.3220
 E8    (eV) :    -0.6403
 % E8        : 32.63

  FORCE on cell =-STRESS in cart. coord.  units (eV):
  Direction    XX          YY          ZZ          XY          YZ          ZX
  Alpha Z    94.30281    94.30281    94.30281
  Ewald     -93.12989  -561.95728  -143.70902    -0.00000    -0.00000     0.00000
  Hartree   191.29844    -4.25429   159.72498    -0.00000    -0.00000    -0.00000
  E(xc)    -134.85811  -135.81315  -134.84373     0.00000    -0.00000     0.00000
  Local    -498.43071   145.31301  -415.37527     0.00000    -0.00000    -0.00000
  n-local    -9.27925   -10.37924    -9.98259     0.00000    -0.00000    -0.00000
  augment     1.32556     1.38939     1.33977     0.00000     0.00000    -0.00000
  Kinetic   446.22940   474.96973   447.39739    -0.00000     0.00000    -0.00000
  Fock        0.00000     0.00000     0.00000     0.00000     0.00000     0.00000
  vdW        -2.04354    -2.13134    -2.01285     0.00000     0.00000     0.00000
  Total      -4.58529     1.43965    -3.15851     0.00000     0.00000    -0.00000
  in kB     -51.37933    16.13169   -35.39190     0.00000     0.00000    -0.00000

 VOLUME and BASIS-vectors are now :
  energy-cutoff  :      600.00
  volume of cell :      142.98
      direct lattice vectors                 reciprocal lattice vectors
     5.700970695  0.000000000  0.000000000     0.175408725  0.000000000  0.000000000
     0.000000000  4.044058096  0.000000000     0.000000000  0.247276368  0.000000000
     0.000000000  0.000000000  6.201871195     0.000000000  0.000000000  0.161241659

  length of vectors
     5.700970695  4.044058096  6.201871195     0.175408725  0.247276368  0.161241659

 FORCES acting on ions
    electron-ion (+dipol)            ewald-force                    non-local-force                 convergence-correction
   0.482E+02 0.916E-12 -.247E+02   -.511E+02 0.185E-14 0.280E+02   0.199E+01 0.526E-23 -.348E+01   0.511E+00 -.354E-12 0.158E+00
   -.482E+02 -.214E-12 0.247E+02   0.511E+02 0.687E-16 -.280E+02   -.199E+01 0.475E-23 0.348E+01   -.511E+00 -.157E-12 -.158E+00
   -.482E+02 0.884E-12 -.247E+02   0.511E+02 -.149E-14 0.280E+02   -.199E+01 0.246E-23 -.348E+01   -.511E+00 0.161E-12 0.158E+00
   0.482E+02 0.408E-13 0.247E+02   -.511E+02 -.171E-14 -.280E+02   0.199E+01 -.336E-23 0.348E+01   0.511E+00 -.267E-12 -.158E+00
   0.285E+02 -.308E-12 -.504E+02   -.315E+02 0.387E-14 0.550E+02   0.247E+01 0.164E-22 -.428E+01   0.336E+00 -.782E-12 -.280E+00
   -.285E+02 0.374E-12 0.504E+02   0.315E+02 0.345E-14 -.550E+02   -.247E+01 0.197E-22 0.428E+01   -.336E+00 -.602E-12 0.280E+00
   -.285E+02 -.133E-11 -.504E+02   0.315E+02 0.431E-14 0.550E+02   -.247E+01 -.148E-22 -.428E+01   -.336E+00 -.665E-12 -.280E+00
   0.285E+02 0.185E-13 0.504E+02   -.315E+02 0.344E-14 -.550E+02   0.247E+01 -.190E-22 0.428E+01   0.336E+00 -.956E-12 0.280E+00
   0.278E-13 -.566E+02 -.162E+02   0.938E-14 0.606E+02 0.172E+02   0.298E-24 -.539E+01 -.109E+01   0.808E-12 0.680E+00 0.672E-01
   0.137E-13 0.566E+02 0.162E+02   0.312E-14 -.606E+02 -.172E+02   0.167E-24 0.539E+01 0.109E+01   -.360E-12 -.680E+00 -.672E-01
   0.281E-13 0.566E+02 -.162E+02   0.561E-14 -.606E+02 0.172E+02   -.836E-24 0.539E+01 -.109E+01   0.332E-12 -.680E+00 0.672E-01
   0.136E-13 -.566E+02 0.162E+02   -.935E-15 0.606E+02 -.172E+02   0.139E-23 -.539E+01 0.109E+01   -.188E-12 0.680E+00 -.672E-01
   -.354E-14 0.419E-12 -.611E+02   -.559E-13 0.564E-16 0.647E+02   0.166E-24 -.208E-23 -.269E+01   0.848E-12 -.997E-13 -.561E+00
   0.384E-14 -.151E-12 0.611E+02   -.571E-13 -.472E-15 -.647E+02   -.166E-24 0.658E-24 0.269E+01   -.189E-11 0.167E-13 0.561E+00
   -.118E-11 0.634E-12 0.271E-10   -.389E-13 -.415E-15 -.142E-13   0.102E-23 -.142E-23 0.178E-14   0.151E-11 -.337E-11 0.790E-12

 POSITION                                       TOTAL-FORCE (eV/Angst)
      2.97186      2.02203      3.95653        -0.341174     -0.000000     -0.023172
      2.72911      2.02203      2.24534         0.341174      0.000000      0.023172
      5.57960      2.02203      3.95653         0.341174      0.000000     -0.023172
      0.12137      2.02203      2.24534        -0.341174     -0.000000      0.023172
      3.40604      2.02203      5.58087        -0.202073     -0.000000      0.104117
      2.29493      2.02203      0.62100         0.202073      0.000000     -0.104117
      5.14541      2.02203      5.58087         0.202073      0.000000      0.104117
      0.55556      2.02203      0.62100        -0.202073     -0.000000     -0.104117
      4.27573      3.20113      4.52476        -0.000000     -0.757144     -0.022959
      1.42524      0.84292      1.67711        -0.000000      0.757144      0.022959
      4.27573      0.84292      4.52476        -0.000000      0.757144     -0.022959
      1.42524      3.20113      1.67711        -0.000000     -0.757144      0.022959
      1.42524      2.02203      3.24974        -0.000000      0.000000      0.349256
      4.27573      2.02203      2.95213        -0.000000     -0.000000     -0.349256
    total drift:                                0.000000     -0.000000      0.000000

  FREE ENERGIE OF THE ION-ELECTRON SYSTEM (eV)
  free  energy   TOTEN  =       -92.75667577 eV

  energy  without entropy=      -92.74406977  energy(sigma->0) =      -92.75037277

 writing wavefunctions

 total charge

# of ion       s       p       d       tot
    1        0.709   1.381   0.000   2.090
    2        0.709   1.381   0.000   2.090
    3        0.709   1.381   0.000   2.090
    4        0.709   1.381   0.000   2.090
    5        0.716   1.308   0.000   2.024
    6        0.716   1.308   0.000   2.024
    7        0.716   1.308   0.000   2.024
    8        0.716   1.308   0.000   2.024
    9        0.700   1.203   0.000   1.903
   10        0.700   1.203   0.000   1.903
   11        0.700   1.203   0.000   1.903
   12        0.700   1.203   0.000   1.903
   13        0.713   1.399   0.000   2.112
   14        0.713   1.399   0.000   2.112
tot          9.929  18.362   0.000  28.291