 vasp.6.4.3 19Mar24 (build May 31 2024 16:31:43) complex

 executed on             LinuxIFC date 2024.11.03  00:50:16

 INCAR:
   SYSTEM = Convergence
   ISTART = 0
   ICHARG = 2
   PREC = Accurate
   ENCUT = 480
   LCHARG = .FALSE.
   LWAVE = .FALSE.
   ALGO = Normal
   NELM = 100
   EDIFF = 1E-6
   EDIFFG = -1E-3
   SIGMA = 0.05
   ISMEAR = 0
   ISPIN = 1
   NSW = 0
   IBRION = -1
   POTIM = .5
   ISIF = 2
   GGA = PE

 POTCAR:    PAW_PBE B 06Sep2000
 POTCAR:    PAW_PBE B 06Sep2000
   VRHFIN =B: s2p1

   TITEL  = PAW_PBE B 06Sep2000
   POMASS =   10.811; ZVAL   =    3.000    mass and valenz
   ENMAX  =  318.614; ENMIN  =  238.960 eV

  PAW_PBE B 06Sep2000                   :

 POSCAR: o-B14
  positions in direct lattice

 exchange-correlation table for PE
   RHO(1)=    0.500       N(1)  =     2000
   RHO(2)=  100.500       N(2)  =     4000

 ion  position               nearest neighbor table
   1  0.521  0.500  0.638-  14 1.64   5 1.69  13 1.70   2 1.73   9 1.85  11 1.85
   2  0.479  0.500  0.362-  13 1.64   6 1.69  14 1.70   1 1.73  10 1.85  12 1.85
   3  0.979  0.500  0.638-  14 1.64   7 1.69  13 1.70   4 1.73   9 1.85  11 1.85
   4  0.021  0.500  0.362-  13 1.64   8 1.69  14 1.70   3 1.73  10 1.85  12 1.85
   5  0.601  0.500  0.900-   1 1.69   6 1.69   7 1.70   9 1.80  11 1.80
   6  0.399  0.500  0.100-   2 1.69   5 1.69   8 1.70  10 1.80  12 1.80
   7  0.899  0.500  0.900-   3 1.69   8 1.69   5 1.70   9 1.80  11 1.80
   8  0.101  0.500  0.100-   4 1.69   7 1.69   6 1.70  10 1.80  12 1.80
   9  0.750  0.792  0.730-  11 1.69   7 1.80   5 1.80   3 1.85   1 1.85  14 1.97
  10  0.250  0.208  0.270-  12 1.69   8 1.80   6 1.80   4 1.85   2 1.85  13 1.97
  11  0.750  0.208  0.730-   9 1.69   7 1.80   5 1.80   3 1.85   1 1.85  14 1.97
  12  0.250  0.792  0.270-  10 1.69   8 1.80   6 1.80   4 1.85   2 1.85  13 1.97
  13  0.250  0.500  0.524-   2 1.64   4 1.64   3 1.70   1 1.70  10 1.97  12 1.97
  14  0.750  0.500  0.476-   1 1.64   3 1.64   2 1.70   4 1.70   9 1.97  11 1.97

  LATTYP: Found a simple orthorhombic cell.
 ALAT       =     4.0479000000
 B/A-ratio  =     1.4073964278
 C/A-ratio  =     1.5326959658

  Lattice vectors:

 A1 = (   0.0000000000,  -4.0479000000,   0.0000000000)
 A2 = (   5.6970000000,   0.0000000000,   0.0000000000)
 A3 = (   0.0000000000,   0.0000000000,   6.2042000000)

Analysis of symmetry for initial positions (statically):
 Subroutine PRICEL returns:
 Original cell was already a primitive cell.

 Routine SETGRP: Setting up the symmetry group for a
 simple orthorhombic supercell.

 Subroutine GETGRP returns: Found  8 space group operations
 (whereof  4 operations were pure point group operations)
 out of a pool of  8 trial point group operations.

The static configuration has the point symmetry C_2h.
 The point group associated with its full space group is D_2h.

Analysis of symmetry for dynamics (positions and initial velocities):
 Subroutine PRICEL returns:
 Original cell was already a primitive cell.

 Routine SETGRP: Setting up the symmetry group for a
 simple orthorhombic supercell.

 Subroutine GETGRP returns: Found  8 space group operations
 (whereof  4 operations were pure point group operations)
 out of a pool of  8 trial point group operations.

The dynamic configuration has the point symmetry C_2h.
 The point group associated with its full space group is D_2h.

 Subroutine INISYM returns: Found  8 space group operations
 (whereof  4 operations are pure point group operations),
 and found     1 'primitive' translations

                                     Primitive cell

  volume of cell :     143.0744

  direct lattice vectors                    reciprocal lattice vectors
     5.697000000  0.000000000  0.000000000     0.175530981  0.000000000  0.000000000
     0.000000000  4.047900000  0.000000000     0.000000000  0.247041676  0.000000000
     0.000000000  0.000000000  6.204200000     0.000000000  0.000000000  0.161181135

  length of vectors
     5.697000000  4.047900000  6.204200000     0.175530981  0.247041676  0.161181135

  position of ions in fractional coordinates (direct lattice)
     0.521230000  0.500000000  0.637960000
     0.478770000  0.500000000  0.362040000
     0.978770000  0.500000000  0.637960000
     0.021230000  0.500000000  0.362040000
     0.600900000  0.500000000  0.899910000
     0.399100000  0.500000000  0.100090000
     0.899100000  0.500000000  0.899910000
     0.100900000  0.500000000  0.100090000
     0.750000000  0.791710000  0.729730000
     0.250000000  0.208290000  0.270270000
     0.750000000  0.208290000  0.729730000
     0.250000000  0.791710000  0.270270000
     0.250000000  0.500000000  0.523670000
     0.750000000  0.500000000  0.476330000

  ion indices of the primitive-cell ions
   primitive index   ion index
                 1           1
                 2           2
                 3           3
                 4           4
                 5           5
                 6           6
                 7           7
                 8           8
                 9           9
                10          10
                11          11
                12          12
                13          13
                14          14

 KPOINTS: k-points

Automatic generation of k-mesh.
 Grid dimensions read from file:
 generate k-points for:   22   31   20

 Generating k-lattice:

  Cartesian coordinates                     Fractional coordinates (reciprocal lattice)
     0.007978681  0.000000000  0.000000000     0.045454545  0.000000000  0.000000000
     0.000000000  0.007969086  0.000000000     0.000000000  0.032258065  0.000000000
     0.000000000  0.000000000  0.008059057     0.000000000  0.000000000  0.050000000

  Length of vectors
     0.007978681  0.007969086  0.008059057

  Shift w.r.t. Gamma in fractional coordinates (k-lattice)
     0.500000000  0.000000000  0.500000000

 Subroutine IBZKPT returns following result:

 Found   1760 irreducible k-points:

 Following reciprocal coordinates:
            Coordinates               Weight
  0.022727  0.000000  0.025000      4.000000
  0.068182  0.000000  0.025000      4.000000
  0.113636  0.000000  0.025000      4.000000
  0.159091  0.000000  0.025000      4.000000
  0.204545  0.000000  0.025000      4.000000
  0.250000  0.000000  0.025000      4.000000
  0.295455  0.000000  0.025000      4.000000
  0.340909  0.000000  0.025000      4.000000
  0.386364  0.000000  0.025000      4.000000
  0.431818  0.000000  0.025000      4.000000
  0.477273  0.000000  0.025000      4.000000
  0.022727  0.032258  0.025000      8.000000
  0.068182  0.032258  0.025000      8.000000
  0.113636  0.032258  0.025000      8.000000
  0.159091  0.032258  0.025000      8.000000
  0.204545  0.032258  0.025000      8.000000
  0.250000  0.032258  0.025000      8.000000
  0.295455  0.032258  0.025000      8.000000
  0.340909  0.032258  0.025000      8.000000
  0.386364  0.032258  0.025000      8.000000
  0.431818  0.032258  0.025000      8.000000
  0.477273  0.032258  0.025000      8.000000
  0.022727  0.064516  0.025000      8.000000
  0.068182  0.064516  0.025000      8.000000
  0.113636  0.064516  0.025000      8.000000
  0.159091  0.064516  0.025000      8.000000
  0.204545  0.064516  0.025000      8.000000
  0.250000  0.064516  0.025000      8.000000
  0.295455  0.064516  0.025000      8.000000
  0.340909  0.064516  0.025000      8.000000
  0.386364  0.064516  0.025000      8.000000
  0.431818  0.064516  0.025000      8.000000
  0.477273  0.064516  0.025000      8.000000
  0.022727  0.096774  0.025000      8.000000
  0.068182  0.096774  0.025000      8.000000
  0.113636  0.096774  0.025000      8.000000
  0.159091  0.096774  0.025000      8.000000
  0.204545  0.096774  0.025000      8.000000
  0.250000  0.096774  0.025000      8.000000
  0.295455  0.096774  0.025000      8.000000
  0.340909  0.096774  0.025000      8.000000
  0.386364  0.096774  0.025000      8.000000
  0.431818  0.096774  0.025000      8.000000
  0.477273  0.096774  0.025000      8.000000
  0.022727  0.129032  0.025000      8.000000
  0.068182  0.129032  0.025000      8.000000
  0.113636  0.129032  0.025000      8.000000
  0.159091  0.129032  0.025000      8.000000
  0.204545  0.129032  0.025000      8.000000
  0.250000  0.129032  0.025000      8.000000
  0.295455  0.129032  0.025000      8.000000
  0.340909  0.129032  0.025000      8.000000
  0.386364  0.129032  0.025000      8.000000
  0.431818  0.129032  0.025000      8.000000
  0.477273  0.129032  0.025000      8.000000
  0.022727  0.161290  0.025000      8.000000
  0.068182  0.161290  0.025000      8.000000
  0.113636  0.161290  0.025000      8.000000
  0.159091  0.161290  0.025000      8.000000
  0.204545  0.161290  0.025000      8.000000
[...]
  0.340909  0.451613  0.475000      8.000000
  0.386364  0.451613  0.475000      8.000000
  0.431818  0.451613  0.475000      8.000000
  0.477273  0.451613  0.475000      8.000000
  0.022727  0.483871  0.475000      8.000000
  0.068182  0.483871  0.475000      8.000000
  0.113636  0.483871  0.475000      8.000000
  0.159091  0.483871  0.475000      8.000000
  0.204545  0.483871  0.475000      8.000000
  0.250000  0.483871  0.475000      8.000000
  0.295455  0.483871  0.475000      8.000000
  0.340909  0.483871  0.475000      8.000000
  0.386364  0.483871  0.475000      8.000000
  0.431818  0.483871  0.475000      8.000000
  0.477273  0.483871  0.475000      8.000000

 Following cartesian coordinates:
            Coordinates               Weight
  0.003989  0.000000  0.004030      4.000000
  0.011968  0.000000  0.004030      4.000000
  0.019947  0.000000  0.004030      4.000000
  0.027925  0.000000  0.004030      4.000000
  0.035904  0.000000  0.004030      4.000000
  0.043883  0.000000  0.004030      4.000000
  0.051861  0.000000  0.004030      4.000000
  0.059840  0.000000  0.004030      4.000000
  0.067819  0.000000  0.004030      4.000000
  0.075797  0.000000  0.004030      4.000000
  0.083776  0.000000  0.004030      4.000000
  0.003989  0.007969  0.004030      8.000000
  0.011968  0.007969  0.004030      8.000000
  0.019947  0.007969  0.004030      8.000000
  0.027925  0.007969  0.004030      8.000000
  0.035904  0.007969  0.004030      8.000000
  0.043883  0.007969  0.004030      8.000000
  0.051861  0.007969  0.004030      8.000000
  0.059840  0.007969  0.004030      8.000000
  0.067819  0.007969  0.004030      8.000000
  0.075797  0.007969  0.004030      8.000000
  0.083776  0.007969  0.004030      8.000000
  0.003989  0.015938  0.004030      8.000000
  0.011968  0.015938  0.004030      8.000000
  0.019947  0.015938  0.004030      8.000000
  0.027925  0.015938  0.004030      8.000000
  0.035904  0.015938  0.004030      8.000000
  0.043883  0.015938  0.004030      8.000000
  0.051861  0.015938  0.004030      8.000000
  0.059840  0.015938  0.004030      8.000000
  0.067819  0.015938  0.004030      8.000000
  0.075797  0.015938  0.004030      8.000000
  0.083776  0.015938  0.004030      8.000000
  0.003989  0.023907  0.004030      8.000000
  0.011968  0.023907  0.004030      8.000000
  0.019947  0.023907  0.004030      8.000000
  0.027925  0.023907  0.004030      8.000000
[...]
 k-point    23 :   0.0227 0.0645 0.0250  plane waves:    3431
 k-point    24 :   0.0682 0.0645 0.0250  plane waves:    3422
 k-point    25 :   0.1136 0.0645 0.0250  plane waves:    3420
 k-point    26 :   0.1591 0.0645 0.0250  plane waves:    3413
 k-point    27 :   0.2045 0.0645 0.0250  plane waves:    3411
 k-point    28 :   0.2500 0.0645 0.0250  plane waves:    3410
 k-point    29 :   0.2955 0.0645 0.0250  plane waves:    3421
 k-point    30 :   0.3409 0.0645 0.0250  plane waves:    3418
 k-point    31 :   0.3864 0.0645 0.0250  plane waves:    3410
 k-point    32 :   0.4318 0.0645 0.0250  plane waves:    3407
 k-point    33 :   0.4773 0.0645 0.0250  plane waves:    3404
 k-point    34 :   0.0227 0.0968 0.0250  plane waves:    3419
 k-point    35 :   0.0682 0.0968 0.0250  plane waves:    3418
 k-point    36 :   0.1136 0.0968 0.0250  plane waves:    3419
 k-point    37 :   0.1591 0.0968 0.0250  plane waves:    3410
 k-point    38 :   0.2045 0.0968 0.0250  plane waves:    3405
 k-point    39 :   0.2500 0.0968 0.0250  plane waves:    3410
 k-point    40 :   0.2955 0.0968 0.0250  plane waves:    3416
 k-point    41 :   0.3409 0.0968 0.0250  plane waves:    3415
 k-point    42 :   0.3864 0.0968 0.0250  plane waves:    3408
 k-point    43 :   0.4318 0.0968 0.0250  plane waves:    3403
 k-point    44 :   0.4773 0.0968 0.0250  plane waves:    3411
 k-point    45 :   0.0227 0.1290 0.0250  plane waves:    3412
 k-point    46 :   0.0682 0.1290 0.0250  plane waves:    3416
 k-point    47 :   0.1136 0.1290 0.0250  plane waves:    3417
 k-point    48 :   0.1591 0.1290 0.0250  plane waves:    3406
 k-point    49 :   0.2045 0.1290 0.0250  plane waves:    3406
 k-point    50 :   0.2500 0.1290 0.0250  plane waves:    3415
 k-point    51 :   0.2955 0.1290 0.0250  plane waves:    3414
 k-point    52 :   0.3409 0.1290 0.0250  plane waves:    3409
 k-point    53 :   0.3864 0.1290 0.0250  plane waves:    3411
 k-point    54 :   0.4318 0.1290 0.0250  plane waves:    3408
 k-point    55 :   0.4773 0.1290 0.0250  plane waves:    3414
 k-point    56 :   0.0227 0.1613 0.0250  plane waves:    3405
 k-point    57 :   0.0682 0.1613 0.0250  plane waves:    3407
 k-point    58 :   0.1136 0.1613 0.0250  plane waves:    3409
 k-point    59 :   0.1591 0.1613 0.0250  plane waves:    3409
 k-point    60 :   0.2045 0.1613 0.0250  plane waves:    3407
[...]
 k-point  1746 :   0.3409 0.4516 0.4750  plane waves:    3417
 k-point  1747 :   0.3864 0.4516 0.4750  plane waves:    3422
 k-point  1748 :   0.4318 0.4516 0.4750  plane waves:    3422
 k-point  1749 :   0.4773 0.4516 0.4750  plane waves:    3423
 k-point  1750 :   0.0227 0.4839 0.4750  plane waves:    3420
 k-point  1751 :   0.0682 0.4839 0.4750  plane waves:    3426
 k-point  1752 :   0.1136 0.4839 0.4750  plane waves:    3429
 k-point  1753 :   0.1591 0.4839 0.4750  plane waves:    3431
 k-point  1754 :   0.2045 0.4839 0.4750  plane waves:    3432
 k-point  1755 :   0.2500 0.4839 0.4750  plane waves:    3428
 k-point  1756 :   0.2955 0.4839 0.4750  plane waves:    3416
 k-point  1757 :   0.3409 0.4839 0.4750  plane waves:    3409
 k-point  1758 :   0.3864 0.4839 0.4750  plane waves:    3421
 k-point  1759 :   0.4318 0.4839 0.4750  plane waves:    3434
 k-point  1760 :   0.4773 0.4839 0.4750  plane waves:    3431

 maximum and minimum number of plane-waves per node :      3441     3391

 maximum number of plane-waves:      3441
 maximum index in each direction:
   IXMAX=   10   IYMAX=    7   IZMAX=   11
   IXMIN=  -10   IYMIN=   -7   IZMIN=  -11

 serial   3D FFT for wavefunctions
 parallel 3D FFT for charge:
    minimum data exchange during FFTs selected (reduces bandwidth)

 Broyden mixing: mesh for mixing (old mesh)
   NGX = 21   NGY = 15   NGZ = 23
  (NGX  = 84   NGY  = 60   NGZ  = 96)
  gives a total of   7245 points

 initial charge density was supplied:
 charge density of overlapping atoms calculated
 number of electron      42.0000000 magnetization
 keeping initial charge density in first step

 Maximum index for augmentation-charges          566 (set IRDMAX)

 First call to EWALD:  gamma=   0.339
 Maximum number of real-space cells 3x 3x 2
 Maximum number of reciprocal cells 3x 2x 3

--------------------------------------- Ionic step        1  -------------------------------------------

--------------------------------------- Iteration      1(   1)  ---------------------------------------

 eigenvalue-minimisations  :168960
 total energy-change (2. order) : 0.5391277E+02  (-0.1764873E+04)
 number of electron      42.0000000 magnetization
 augmentation part       42.0000000 magnetization

 Free energy of the ion-electron system (eV)
  alpha Z        PSCENC =        94.24357992
  Ewald energy   TEWEN  =      -795.76658092
  -Hartree energ DENC   =      -271.33601302
  -exchange      EXHF   =         0.00000000
  -V(xc)+E(xc)   XCENC  =        97.50108136
  PAW double counting   =       608.99811708     -597.02363782
  entropy T*S    EENTRO =        -0.00181061
  eigenvalues    EBANDS =       -79.06810202
  atomic energy  EATOM  =       996.36613177
  Solvation  Ediel_sol  =         0.00000000
  free energy    TOTEN  =        53.91276573 eV

  energy without entropy =       53.91457635  energy(sigma->0) =       53.91367104

[...]

 eigenvalue-minimisations  :235200
 total energy-change (2. order) :-0.1468124E+03  (-0.1381560E+03)
 number of electron      42.0000000 magnetization
 augmentation part       42.0000000 magnetization

[...]

 Broyden mixing:
  rms(total) = 0.12317E+01    rms(broyden)= 0.12317E+01
  rms(prec ) = 0.22668E+01
  weight for this iteration     100.00

[...]

 eigenvalues of (default mixing * dielectric matrix)
  average eigenvalue GAMMA=   2.0632
  2.0632

[...]

 eigenvalue-minimisations  :252576
 total energy-change (2. order) : 0.1649550E+01  (-0.3183521E+00)
 number of electron      41.9999999 magnetization
 augmentation part       -0.1693068 magnetization

[...]

 Broyden mixing:
  rms(total) = 0.77884E-04    rms(broyden)= 0.77883E-04
  rms(prec ) = 0.12753E-03
  weight for this iteration     100.00

 eigenvalues of (default mixing * dielectric matrix)
  average eigenvalue GAMMA=   1.7689
  3.3481  2.4713  2.3205  1.7628  1.6204  1.0215  1.0215  1.1249  1.2293

[...]

--------------------------------------- Iteration      1(  15)  ---------------------------------------

 eigenvalue-minimisations  :196800
 total energy-change (2. order) :-0.2364084E-06  (-0.1393294E-07)
 number of electron      41.9999999 magnetization
 augmentation part       -0.1744087 magnetization

 Free energy of the ion-electron system (eV)
  alpha Z        PSCENC =        94.24357992
  Ewald energy   TEWEN  =      -795.76658092
  -Hartree energ DENC   =      -349.09013265
  -exchange      EXHF   =         0.00000000
  -V(xc)+E(xc)   XCENC  =       101.58810872
  PAW double counting   =      3722.73000139    -3711.92194081
  entropy T*S    EENTRO =        -0.00377141
  eigenvalues    EBANDS =      -148.72815517
  atomic energy  EATOM  =       996.36613177
  Solvation  Ediel_sol  =         0.00000000
  free energy    TOTEN  =       -90.58275915 eV

  energy without entropy =      -90.57898775  energy(sigma->0) =      -90.58087345

 average (electrostatic) potential at core
  the test charge radii are     0.7672
  (the norm of the test charge is              1.0000)
       1 -29.9823       2 -29.9823       3 -29.9823       4 -29.9823       5 -28.9383
       6 -28.9383       7 -28.9383       8 -28.9383       9 -29.3438      10 -29.3438
      11 -29.3438      12 -29.3438      13 -29.9180      14 -29.9180

 E-fermi :   1.8889     XC(G=0):  -9.4405     alpha+bet :-10.8605

 val. band max:        1.8886100040   @ k =   0.0682   0.0000   0.1250
 cond. band min:       1.8891082334   @ k =   0.3864   0.1613   0.4250
 fundamental gap:      0.0004982294
 Fermi energy:         1.8889424531

 k-point     1 :       0.0227    0.0000    0.0250
  band No.  band energies     occupation
      1     -12.7318      2.00000
      2     -11.5789      2.00000
      3      -8.6625      2.00000
      4      -8.4235      2.00000
      5      -6.0832      2.00000
      6      -5.0898      2.00000
      7      -4.6318      2.00000
      8      -4.3242      2.00000
      9      -3.9692      2.00000
     10      -3.5837      2.00000
     11      -2.4150      2.00000
     12      -2.2368      2.00000
     13      -2.1882      2.00000
     14      -1.0664      2.00000
     15      -0.0313      2.00000
     16       0.0029      2.00000
     17       0.1363      2.00000
     18       0.1697      2.00000
     19       0.5473      2.00000
     20       2.0754      0.00000
     21       2.1228      0.00000
     22       2.2270      0.00000
     23       5.4153      0.00000
     24       5.7905      0.00000
     25       5.8178      0.00000
     26       5.9300      0.00000
     27       6.7916      0.00000
     28       7.6056      0.00000
     29       7.7618      0.00000
     30       8.6451      0.00000
     31       8.7534      0.00000
     32       8.8812      0.00000
     33       9.0452      0.00000
     34      10.0394      0.00000
     35      11.1463      0.00000
     36      11.3867      0.00000
     37      11.7242      0.00000
     38      11.7966      0.00000
     39      11.9001      0.00000
     40      12.3624      0.00000
     41      12.8283      0.00000
     42      13.4069      0.00000
     43      13.5898      0.00000
     44      15.4944      0.00000
     45      15.5791      0.00000
     46      15.9513      0.00000
     47      16.3650      0.00000
     48      16.4721      0.00000

[...]

 k-point  1760 :       0.4773    0.4839    0.4750
  band No.  band energies     occupation
      1     -11.9797      2.00000
      2     -11.9166      2.00000
      3      -8.5253      2.00000
      4      -8.4742      2.00000
      5      -5.9080      2.00000
      6      -5.8609      2.00000
      7      -4.6671      2.00000
      8      -4.5472      2.00000
      9      -4.4036      2.00000
     10      -4.2179      2.00000
     11      -2.2122      2.00000
     12      -2.1880      2.00000
     13      -1.9843      2.00000
     14      -1.8561      2.00000
     15      -0.1114      2.00000
     16       0.0039      2.00000
     17       0.4444      2.00000
     18       0.4679      2.00000
     19       0.5857      2.00000
     20       0.7249      2.00000
     21       1.6723      2.00000
     22       1.7127      2.00000
     23       5.9111      0.00000
     24       5.9958      0.00000
     25       6.9995      0.00000
     26       7.2846      0.00000
     27       7.4578      0.00000
     28       7.5086      0.00000
     29       9.5213      0.00000
     30       9.6413      0.00000
     31       9.8966      0.00000
     32       9.9671      0.00000
     33      10.4986      0.00000
     34      10.6594      0.00000
     35      11.2945      0.00000
     36      11.4391      0.00000
     37      11.4848      0.00000
     38      11.5084      0.00000
     39      13.1358      0.00000
     40      13.1789      0.00000
     41      13.9302      0.00000
     42      14.1615      0.00000
     43      14.2638      0.00000
     44      14.3053      0.00000
     45      14.6958      0.00000
     46      14.7720      0.00000
     47      14.8203      0.00000
     48      14.9365      0.00000

 soft charge-density along one line, spin component           1
         0         1         2         3         4         5         6         7         8         9
 total charge-density along one line

------------------------ aborting loop because EDIFF is reached ----------------------------------------

  FORCE on cell =-STRESS in cart. coord.  units (eV):
  Direction    XX          YY          ZZ          XY          YZ          ZX
  Alpha Z    94.24358    94.24358    94.24358
  Ewald     -90.05465  -558.27634  -147.43815    -0.00000    -0.00000     0.00000
  Hartree   186.96594     5.98503   156.13724    -0.00000    -0.00000    -0.00000
  E(xc)    -134.90831  -135.87953  -134.87062    -0.00000    -0.00000    -0.00000
  Local    -493.80592   125.95616  -405.83528    -0.00000     0.00000     0.00000
  n-local    -8.87028   -10.89981    -9.26238    -0.00495    -0.00678     0.06495
  augment     1.32021     1.36601     1.34881     0.00000     0.00000     0.00000
  Kinetic   446.36688   477.66545   445.11984     0.24297     0.06539    -1.11401
  Fock        0.00000     0.00000     0.00000     0.00000     0.00000     0.00000
  Total       1.25745     0.16054    -0.55696     0.00000     0.00000     0.00000
  in kB      14.08120     1.79780    -6.23694     0.00000     0.00000     0.00000

 VOLUME and BASIS-vectors are now :
  energy-cutoff  :      480.00
  volume of cell :      143.07
      direct lattice vectors                 reciprocal lattice vectors
     5.697000000  0.000000000  0.000000000     0.175530981  0.000000000  0.000000000
     0.000000000  4.047900000  0.000000000     0.000000000  0.247041676  0.000000000
     0.000000000  0.000000000  6.204200000     0.000000000  0.000000000  0.161181135

  length of vectors
     5.697000000  4.047900000  6.204200000     0.175530981  0.247041676  0.161181135

 FORCES acting on ions
    electron-ion (+dipol)            ewald-force                    non-local-force                 convergence-correction
   0.497E+02 -.314E-12 -.250E+02   -.515E+02 0.211E-14 0.284E+02   0.182E+01 -.307E-18 -.332E+01   0.269E-04 0.345E-14 -.420E-04
   -.497E+02 -.321E-12 0.250E+02   0.515E+02 0.448E-16 -.284E+02   -.182E+01 -.287E-18 0.332E+01   -.269E-04 0.407E-14 0.420E-04
   -.497E+02 -.278E-12 -.250E+02   0.515E+02 0.587E-14 0.284E+02   -.182E+01 0.205E-18 -.332E+01   -.269E-04 0.397E-14 -.420E-04
   0.497E+02 -.930E-14 0.250E+02   -.515E+02 0.181E-14 -.284E+02   0.182E+01 0.206E-18 0.332E+01   0.269E-04 0.347E-14 0.420E-04
   0.313E+02 0.802E-12 -.527E+02   -.341E+02 0.342E-14 0.571E+02   0.194E+01 -.637E-20 -.409E+01   -.357E-05 0.246E-14 -.377E-04
   -.313E+02 0.254E-12 0.527E+02   0.341E+02 0.354E-14 -.571E+02   -.194E+01 0.890E-20 0.409E+01   0.357E-05 0.400E-14 0.377E-04
   -.313E+02 0.832E-12 -.527E+02   0.341E+02 0.299E-14 0.571E+02   -.194E+01 0.533E-20 -.409E+01   0.357E-05 0.340E-14 -.377E-04
   0.313E+02 0.139E-13 0.527E+02   -.341E+02 0.353E-14 -.571E+02   0.194E+01 -.368E-20 0.409E+01   -.357E-05 0.302E-14 0.377E-04
   -.196E-13 -.558E+02 -.155E+02   -.720E-14 0.613E+02 0.166E+02   0.215E-17 -.540E+01 -.113E+01   -.167E-14 -.203E-03 -.185E-04
   -.361E-13 0.558E+02 0.155E+02   0.108E-13 -.613E+02 -.166E+02   -.158E-18 0.540E+01 0.113E+01   0.172E-13 0.203E-03 0.185E-04
   -.202E-13 0.558E+02 -.155E+02   0.393E-14 -.613E+02 0.166E+02   0.970E-18 0.540E+01 -.113E+01   -.258E-14 0.203E-03 -.185E-04
   -.367E-13 -.558E+02 0.155E+02   0.643E-14 0.613E+02 -.166E+02   -.874E-18 -.540E+01 0.113E+01   0.183E-13 -.203E-03 0.185E-04
   -.148E-13 0.208E-13 -.623E+02   0.123E-13 0.532E-14 0.649E+02   0.699E-19 -.128E-18 -.256E+01   0.742E-14 0.344E-14 -.477E-04
   -.148E-13 0.643E-12 0.623E+02   0.173E-13 0.235E-14 -.649E+02   0.432E-19 -.223E-18 0.256E+01   -.786E-14 0.412E-14 0.477E-04
   -.434E-13 0.120E-11 -.158E-11   0.152E-13 0.767E-14 -.284E-13   0.224E-15 -.351E-18 0.000E+00   0.392E-13 0.318E-13 -.254E-13

 POSITION                                       TOTAL-FORCE (eV/Angst)
      2.96945      2.02395      3.95803        -0.001375     -0.000000      0.047694
      2.72755      2.02395      2.24617         0.001375     -0.000000     -0.047694
      5.57605      2.02395      3.95803         0.001375     -0.000000      0.047694
      0.12095      2.02395      2.24617        -0.001375     -0.000000     -0.047694
      3.42333      2.02395      5.58322        -0.826356     -0.000000      0.283141
      2.27367      2.02395      0.62098         0.826356     -0.000000     -0.283141
      5.12217      2.02395      5.58322         0.826356     -0.000000      0.283141
      0.57483      2.02395      0.62098        -0.826356     -0.000000     -0.283141
      4.27275      3.20476      4.52739         0.000000      0.059551     -0.077985
      1.42425      0.84314      1.67681        -0.000000     -0.059551      0.077985
      4.27275      0.84314      4.52739        -0.000000     -0.059551     -0.077985
      1.42425      3.20476      1.67681        -0.000000      0.059551      0.077985
      1.42425      2.02395      3.24895        -0.000000     -0.000000      0.061092
      4.27275      2.02395      2.95525         0.000000     -0.000000     -0.061092
    total drift:                                0.000000      0.000000     -0.000000

  FREE ENERGIE OF THE ION-ELECTRON SYSTEM (eV)
  free  energy   TOTEN  =       -90.58275915 eV

  energy  without entropy=      -90.57898775  energy(sigma->0) =      -90.58087345