 vasp.6.4.3 19Mar24 (build May 31 2024 16:31:43) complex

 executed on             LinuxIFC date 2024.10.29  14:13:09

 INCAR:
   SYSTEM = Kpoints
   ISTART = 0
   ICHARG = 2
   PREC = Accurate
   ENCUT = 450
   LCHARG = .FALSE.
   LWAVE = .FALSE.
   ALGO = Normal
   NELM = 100
   EDIFF = 1E-6
   EDIFFG = -1E-3
   SIGMA = 0.05
   ISMEAR = 0
   ISPIN = 1
   NSW = 0
   IBRION = -1
   POTIM = .5
   ISIF = 2
   GGA = PE

 POTCAR:    PAW_PBE B 06Sep2000
 POTCAR:    PAW_PBE B 06Sep2000
   VRHFIN =B: s2p1

   TITEL  = PAW_PBE B 06Sep2000
   POMASS =   10.811; ZVAL   =    3.000    mass and valenz
   ENMAX  =  318.614; ENMIN  =  238.960 eV

  PAW_PBE B 06Sep2000                   :

 POSCAR: o-B14
  positions in direct lattice

 exchange-correlation table for PE
   RHO(1)=    0.500       N(1)  =     2000
   RHO(2)=  100.500       N(2)  =     4000

 ion  position               nearest neighbor table
   1  0.521  0.500  0.638-  14 1.64   5 1.69  13 1.70   2 1.73   9 1.85  11 1.85
   2  0.479  0.500  0.362-  13 1.64   6 1.69  14 1.70   1 1.73  10 1.85  12 1.85
   3  0.979  0.500  0.638-  14 1.64   7 1.69  13 1.70   4 1.73   9 1.85  11 1.85
   4  0.021  0.500  0.362-  13 1.64   8 1.69  14 1.70   3 1.73  10 1.85  12 1.85
   5  0.601  0.500  0.900-   1 1.69   6 1.69   7 1.70   9 1.80  11 1.80
   6  0.399  0.500  0.100-   2 1.69   5 1.69   8 1.70  10 1.80  12 1.80
   7  0.899  0.500  0.900-   3 1.69   8 1.69   5 1.70   9 1.80  11 1.80
   8  0.101  0.500  0.100-   4 1.69   7 1.69   6 1.70  10 1.80  12 1.80
   9  0.750  0.792  0.730-  11 1.69   7 1.80   5 1.80   3 1.85   1 1.85  14 1.97
  10  0.250  0.208  0.270-  12 1.69   8 1.80   6 1.80   4 1.85   2 1.85  13 1.97
  11  0.750  0.208  0.730-   9 1.69   7 1.80   5 1.80   3 1.85   1 1.85  14 1.97
  12  0.250  0.792  0.270-  10 1.69   8 1.80   6 1.80   4 1.85   2 1.85  13 1.97
  13  0.250  0.500  0.524-   2 1.64   4 1.64   3 1.70   1 1.70  10 1.97  12 1.97
  14  0.750  0.500  0.476-   1 1.64   3 1.64   2 1.70   4 1.70   9 1.97  11 1.97

  LATTYP: Found a simple orthorhombic cell.
 ALAT       =     4.0479000000
 B/A-ratio  =     1.4073964278
 C/A-ratio  =     1.5326959658

  Lattice vectors:

 A1 = (   0.0000000000,  -4.0479000000,   0.0000000000)
 A2 = (   5.6970000000,   0.0000000000,   0.0000000000)
 A3 = (   0.0000000000,   0.0000000000,   6.2042000000)

Analysis of symmetry for initial positions (statically):
 Subroutine PRICEL returns:
 Original cell was already a primitive cell.

 Routine SETGRP: Setting up the symmetry group for a
 simple orthorhombic supercell.

 Subroutine GETGRP returns: Found  8 space group operations
 (whereof  4 operations were pure point group operations)
 out of a pool of  8 trial point group operations.

The static configuration has the point symmetry C_2h.
 The point group associated with its full space group is D_2h.

Analysis of symmetry for dynamics (positions and initial velocities):
 Subroutine PRICEL returns:
 Original cell was already a primitive cell.

 Routine SETGRP: Setting up the symmetry group for a
 simple orthorhombic supercell.

 Subroutine GETGRP returns: Found  8 space group operations
 (whereof  4 operations were pure point group operations)
 out of a pool of  8 trial point group operations.

The dynamic configuration has the point symmetry C_2h.
 The point group associated with its full space group is D_2h.

 Subroutine INISYM returns: Found  8 space group operations
 (whereof  4 operations are pure point group operations),
 and found     1 'primitive' translations

                                     Primitive cell

  volume of cell :     143.0744

  direct lattice vectors                    reciprocal lattice vectors
     5.697000000  0.000000000  0.000000000     0.175530981  0.000000000  0.000000000
     0.000000000  4.047900000  0.000000000     0.000000000  0.247041676  0.000000000
     0.000000000  0.000000000  6.204200000     0.000000000  0.000000000  0.161181135

  length of vectors
     5.697000000  4.047900000  6.204200000     0.175530981  0.247041676  0.161181135

  position of ions in fractional coordinates (direct lattice)
     0.521230000  0.500000000  0.637960000
     0.478770000  0.500000000  0.362040000
     0.978770000  0.500000000  0.637960000
     0.021230000  0.500000000  0.362040000
     0.600900000  0.500000000  0.899910000
     0.399100000  0.500000000  0.100090000
     0.899100000  0.500000000  0.899910000
     0.100900000  0.500000000  0.100090000
     0.750000000  0.791710000  0.729730000
     0.250000000  0.208290000  0.270270000
     0.750000000  0.208290000  0.729730000
     0.250000000  0.791710000  0.270270000
     0.250000000  0.500000000  0.523670000
     0.750000000  0.500000000  0.476330000

  ion indices of the primitive-cell ions
   primitive index   ion index
                 1           1
                 2           2
                 3           3
                 4           4
                 5           5
                 6           6
                 7           7
                 8           8
                 9           9
                10          10
                11          11
                12          12
                13          13
                14          14

 KPOINTS: k-points

Automatic generation of k-mesh.
 Grid dimensions read from file:
 generate k-points for:    4    6    4

 Generating k-lattice:

  Cartesian coordinates                     Fractional coordinates (reciprocal lattice)
     0.043882745  0.000000000  0.000000000     0.250000000  0.000000000  0.000000000
     0.000000000  0.041173613  0.000000000     0.000000000  0.166666667  0.000000000
     0.000000000  0.000000000  0.040295284     0.000000000  0.000000000  0.250000000

  Length of vectors
     0.043882745  0.041173613  0.040295284

  Shift w.r.t. Gamma in fractional coordinates (k-lattice)
     0.500000000  0.500000000  0.500000000

 Subroutine IBZKPT returns following result:

 Found     12 irreducible k-points:

 Following reciprocal coordinates:
            Coordinates               Weight
  0.125000  0.083333  0.125000      8.000000
  0.375000  0.083333  0.125000      8.000000
  0.125000  0.250000  0.125000      8.000000
  0.375000  0.250000  0.125000      8.000000
  0.125000  0.416667  0.125000      8.000000
  0.375000  0.416667  0.125000      8.000000
  0.125000  0.083333  0.375000      8.000000
  0.375000  0.083333  0.375000      8.000000
  0.125000  0.250000  0.375000      8.000000
  0.375000  0.250000  0.375000      8.000000
  0.125000  0.416667  0.375000      8.000000
  0.375000  0.416667  0.375000      8.000000

 Following cartesian coordinates:
            Coordinates               Weight
  0.021941  0.020587  0.020148      8.000000
  0.065824  0.020587  0.020148      8.000000
  0.021941  0.061760  0.020148      8.000000
  0.065824  0.061760  0.020148      8.000000
  0.021941  0.102934  0.020148      8.000000
  0.065824  0.102934  0.020148      8.000000
  0.021941  0.020587  0.060443      8.000000
  0.065824  0.020587  0.060443      8.000000
  0.021941  0.061760  0.060443      8.000000
  0.065824  0.061760  0.060443      8.000000
  0.021941  0.102934  0.060443      8.000000
  0.065824  0.102934  0.060443      8.000000

 SYSTEM =  Kpoints
 POSCAR =  o-B14

 Startparameter for this run:
   NWRITE =      2    write-flag & timer
   PREC   = accura    normal or accurate (medium, high low for compatibility)
   ISTART =      0    job   : 0-new  1-cont  2-samecut
   ICHARG =      2    charge: 1-file 2-atom 10-const
   ISPIN  =      1    spin polarized calculation?
   LNONCOLLINEAR =      F non collinear calculations
   LSORBIT =      F    spin-orbit coupling
   INIWAV =      1    electr: 0-lowe 1-rand  2-diag
   LASPH  =      F    aspherical Exc in radial PAW
 Electronic Relaxation 1
   ENCUT  =  450.0 eV  33.07 Ry    5.75 a.u.   9.85  7.00 10.73*2*pi/ulx,y,z
   ENINI  =  450.0     initial cutoff
   ENAUG  =  535.5 eV  augmentation charge cutoff
   NELM   =    100;   NELMIN=  2; NELMDL= -5     # of ELM steps
   EDIFF  = 0.1E-05   stopping-criterion for ELM
   LREAL  =      F    real-space projection
   NLSPLINE    = F    spline interpolate recip. space projectors
   LCOMPAT=      F    compatible to vasp.4.4
   GGA_COMPAT  = T    GGA compatible to vasp.4.4-vasp.4.6
   LMAXPAW     = -100 max onsite density
   LMAXMIX     =    2 max onsite mixed and CHGCAR
   VOSKOWN=      0    Vosko Wilk Nusair interpolation
   ROPT   =    0.00000
 Ionic relaxation
   EDIFFG = -.1E-02   stopping-criterion for IOM
   NSW    =      0    number of steps for IOM
   NBLOCK =      1;   KBLOCK =      1    inner block; outer block
   IBRION =     -1    ionic relax: 0-MD 1-quasi-New 2-CG
   NFREE  =      0    steps in history (QN), initial steepest desc. (CG)
   ISIF   =      2    stress and relaxation
   IWAVPR =     10    prediction:  0-non 1-charg 2-wave 3-comb
   ISYM   =      2    0-nonsym 1-usesym 2-fastsym
   LCORR  =      T    Harris-Foulkes like correction to forces

   POTIM  = 0.5000    time-step for ionic-motion
   TEIN   =    0.0    initial temperature
   TEBEG  =    0.0;   TEEND  =   0.0 temperature during run
   SMASS  =  -3.00    Nose mass-parameter (am)
   estimated Nose-frequenzy (Omega)   =  0.10E-29 period in steps = 0.13E+47 mass=  -0.742E-27a.u.
   SCALEE = 1.0000    scale energy and forces
   NPACO  =    256;   APACO  = 10.0  distance and # of slots for P.C.
   PSTRESS=    0.0 pullay stress

  Mass of Ions in am
   POMASS =  10.81
  Ionic Valenz
   ZVAL   =   3.00
  Atomic Wigner-Seitz radii
  virtual crystal weights
   VCA    =   1.00
   NELECT =      42.0000    total number of electrons
   NUPDOWN=      -1.0000    fix difference up-down

 DOS related values:
   EMIN   =  10.00;   EMAX   =-10.00  energy-range for DOS
   EFERMI =   0.00;   METHOD = LEGACY
   ISMEAR =     0;   SIGMA  =   0.05  broadening in eV -4-tet -1-fermi 0-gaus

 Electronic relaxation 2 (details)
   IALGO  =     38    algorithm
   LDIAG  =      T    sub-space diagonalisation (order eigenvalues)
   LSUBROT=      F    optimize rotation matrix (better conditioning)
   TURBO    =      0    0=normal 1=particle mesh
   IRESTART =      0    0=no restart 2=restart with 2 vectors
   NREBOOT  =      0    no. of reboots
   NMIN     =      0    reboot dimension
   EREF     =   0.00    reference energy to select bands
   IMIX   =      4    mixing-type and parameters
     AMIX     =   0.40;   BMIX     =  1.00
     AMIX_MAG =   1.60;   BMIX_MAG =  1.00
     AMIN     =   0.10
     WC   =   100.;   INIMIX=   1;  MIXPRE=   1;  MAXMIX= -45

 Intra band minimization:
   WEIMIN = 0.0000     energy-eigenvalue tresh-hold
   EBREAK =  0.52E-08  absolut break condition
   DEPER  =   0.30     relativ break condition

   TIME   =   0.40     timestep for ELM

  volume/ion in A,a.u.               =      10.22        68.97
  Fermi-wavevector in a.u.,A,eV,Ry     =   1.088021  2.056062 16.106441  1.183790
  Thomas-Fermi vector in A             =   2.224193

 Write flags
   LWAVE        =      F    write WAVECAR
   LDOWNSAMPLE  =      F    k-point downsampling of WAVECAR
   LCHARG       =      F    write CHGCAR
   LVTOT        =      F    write LOCPOT, total local potential
[...]
     0.000000000  0.000000000  6.204200000     0.000000000  0.000000000  0.161181135

[...]

 k-points in units of 2pi/SCALE and weight: k-points
   0.02194137  0.02058681  0.02014764       0.083
   0.06582412  0.02058681  0.02014764       0.083
   0.02194137  0.06176042  0.02014764       0.083
   0.06582412  0.06176042  0.02014764       0.083
   0.02194137  0.10293403  0.02014764       0.083
   0.06582412  0.10293403  0.02014764       0.083
   0.02194137  0.02058681  0.06044293       0.083
   0.06582412  0.02058681  0.06044293       0.083
   0.02194137  0.06176042  0.06044293       0.083
   0.06582412  0.06176042  0.06044293       0.083
   0.02194137  0.10293403  0.06044293       0.083
   0.06582412  0.10293403  0.06044293       0.083

 k-points in reciprocal lattice and weights: k-points
   0.12500000  0.08333333  0.12500000       0.083
   0.37500000  0.08333333  0.12500000       0.083
   0.12500000  0.25000000  0.12500000       0.083
   0.37500000  0.25000000  0.12500000       0.083
   0.12500000  0.41666667  0.12500000       0.083
   0.37500000  0.41666667  0.12500000       0.083
   0.12500000  0.08333333  0.37500000       0.083
   0.37500000  0.08333333  0.37500000       0.083
   0.12500000  0.25000000  0.37500000       0.083
   0.37500000  0.25000000  0.37500000       0.083
   0.12500000  0.41666667  0.37500000       0.083
   0.37500000  0.41666667  0.37500000       0.083

 position of ions in fractional coordinates (direct lattice)
   0.52123000  0.50000000  0.63796000
   0.47877000  0.50000000  0.36204000
   0.97877000  0.50000000  0.63796000
   0.02123000  0.50000000  0.36204000
   0.60090000  0.50000000  0.89991000
   0.39910000  0.50000000  0.10009000
   0.89910000  0.50000000  0.89991000
   0.10090000  0.50000000  0.10009000
   0.75000000  0.79171000  0.72973000
   0.25000000  0.20829000  0.27027000
   0.75000000  0.20829000  0.72973000
   0.25000000  0.79171000  0.27027000
   0.25000000  0.50000000  0.52367000
   0.75000000  0.50000000  0.47633000

 position of ions in cartesian coordinates  (Angst):
   2.96944731  2.02395000  3.95803143
   2.72755269  2.02395000  2.24616857
   5.57605269  2.02395000  3.95803143
   0.12094731  2.02395000  2.24616857
   3.42332730  2.02395000  5.58322162
   2.27367270  2.02395000  0.62097838
   5.12217270  2.02395000  5.58322162
   0.57482730  2.02395000  0.62097838
   4.27275000  3.20476291  4.52739087
   1.42425000  0.84313709  1.67680913
   4.27275000  0.84313709  4.52739087
   1.42425000  3.20476291  1.67680913
   1.42425000  2.02395000  3.24895341
   4.27275000  2.02395000  2.95524659

 k-point     1 :   0.1250 0.0833 0.1250  plane waves:    3088
 k-point     2 :   0.3750 0.0833 0.1250  plane waves:    3101
 k-point     3 :   0.1250 0.2500 0.1250  plane waves:    3100
 k-point     4 :   0.3750 0.2500 0.1250  plane waves:    3095
 k-point     5 :   0.1250 0.4167 0.1250  plane waves:    3114
 k-point     6 :   0.3750 0.4167 0.1250  plane waves:    3113
 k-point     7 :   0.1250 0.0833 0.3750  plane waves:    3085
 k-point     8 :   0.3750 0.0833 0.3750  plane waves:    3101
 k-point     9 :   0.1250 0.2500 0.3750  plane waves:    3106
 k-point    10 :   0.3750 0.2500 0.3750  plane waves:    3109
 k-point    11 :   0.1250 0.4167 0.3750  plane waves:    3106
 k-point    12 :   0.3750 0.4167 0.3750  plane waves:    3099

 maximum and minimum number of plane-waves per node :      3114     3085

 maximum number of plane-waves:      3114
 maximum index in each direction:
   IXMAX=    9   IYMAX=    6   IZMAX=   10
   IXMIN=  -10   IYMIN=   -7   IZMIN=  -11

 serial   3D FFT for wavefunctions
 parallel 3D FFT for charge:
    minimum data exchange during FFTs selected (reduces bandwidth)

 Broyden mixing: mesh for mixing (old mesh)
   NGX = 19   NGY = 15   NGZ = 21
  (NGX  = 80   NGY  = 56   NGZ  = 96)
  gives a total of   5985 points

 initial charge density was supplied:
 charge density of overlapping atoms calculated
 number of electron      42.0000000 magnetization
 keeping initial charge density in first step

 Maximum index for augmentation-charges          646 (set IRDMAX)

 First call to EWALD:  gamma=   0.339
 Maximum number of real-space cells 3x 3x 2
 Maximum number of reciprocal cells 3x 2x 3

--------------------------------------- Ionic step        1  -------------------------------------------

--------------------------------------- Iteration      1(   1)  ---------------------------------------

 eigenvalue-minimisations  :  1152
 total energy-change (2. order) : 0.4747345E+02  (-0.1712516E+04)
 number of electron      42.0000000 magnetization
 augmentation part       42.0000000 magnetization

 Free energy of the ion-electron system (eV)
  alpha Z        PSCENC =        94.24357992
  Ewald energy   TEWEN  =      -795.76658092
  -Hartree energ DENC   =      -271.33601302
  -exchange      EXHF   =         0.00000000
  -V(xc)+E(xc)   XCENC  =        97.50108175
  PAW double counting   =       608.99811708     -597.02363782
  entropy T*S    EENTRO =        -0.00000000
  eigenvalues    EBANDS =       -85.50649824
  atomic energy  EATOM  =       996.36340036
  Solvation  Ediel_sol  =         0.00000000
  free energy    TOTEN  =        47.47344911 eV

  energy without entropy =       47.47344911  energy(sigma->0) =       47.47344911

[...]

 eigenvalue-minimisations  :  1584
 total energy-change (2. order) :-0.1406751E+03  (-0.1324859E+03)
 number of electron      42.0000000 magnetization
 augmentation part       42.0000000 magnetization

[...]

 Broyden mixing:
  rms(total) = 0.12391E+01    rms(broyden)= 0.12390E+01
  rms(prec ) = 0.22740E+01
  weight for this iteration     100.00

[...]

 eigenvalues of (default mixing * dielectric matrix)
  average eigenvalue GAMMA=   2.0582
  2.0582

[...]

 eigenvalue-minimisations  :  1728
 total energy-change (2. order) : 0.1652049E+01  (-0.3286666E+00)
 number of electron      42.0000002 magnetization
 augmentation part       -0.1690243 magnetization

[...]

 Broyden mixing:
  rms(total) = 0.23817E-03    rms(broyden)= 0.23816E-03
  rms(prec ) = 0.33492E-03
  weight for this iteration     100.00

 eigenvalues of (default mixing * dielectric matrix)
  average eigenvalue GAMMA=   1.8150
  3.2864  2.4955  2.2389  1.8305  1.5216  0.9899  1.0785  1.0785

[...]

--------------------------------------- Iteration      1(  14)  ---------------------------------------

 eigenvalue-minimisations  :  1368
 total energy-change (2. order) :-0.9449127E-06  (-0.4883897E-07)
 number of electron      42.0000002 magnetization
 augmentation part       -0.1738900 magnetization

 Free energy of the ion-electron system (eV)
  alpha Z        PSCENC =        94.24357992
  Ewald energy   TEWEN  =      -795.76658092
  -Hartree energ DENC   =      -349.05357019
  -exchange      EXHF   =         0.00000000
  -V(xc)+E(xc)   XCENC  =       101.58713935
  PAW double counting   =      3716.98803661    -3706.18179751
  entropy T*S    EENTRO =        -0.00474653
  eigenvalues    EBANDS =      -148.75708489
  atomic energy  EATOM  =       996.36340036
  Solvation  Ediel_sol  =         0.00000000
  free energy    TOTEN  =       -90.58162380 eV

  energy without entropy =      -90.57687727  energy(sigma->0) =      -90.57925053

 average (electrostatic) potential at core
  the test charge radii are     0.7672
  (the norm of the test charge is              1.0000)
       1 -29.9363       2 -29.9363       3 -29.9363       4 -29.9363       5 -28.8976
       6 -28.8976       7 -28.8976       8 -28.8976       9 -29.4647      10 -29.4647
      11 -29.4647      12 -29.4647      13 -29.8504      14 -29.8504

 E-fermi :   1.8171     XC(G=0):  -9.4408     alpha+bet :-10.8605

 val. band max:        1.8027370155   @ k =   0.3750   0.0833   0.1250
 cond. band min:       1.8304015793   @ k =   0.3750   0.4167   0.1250
 fundamental gap:      0.0276645638
 Fermi energy:         1.8170897592

 k-point     1 :       0.1250    0.0833    0.1250
  band No.  band energies     occupation
      1     -12.6734      2.00000
      2     -11.6571      2.00000
      3      -8.6318      2.00000
      4      -8.3345      2.00000
      5      -6.1590      2.00000
      6      -5.3195      2.00000
      7      -4.6160      2.00000
      8      -4.3352      2.00000
      9      -3.7691      2.00000
     10      -3.2359      2.00000
     11      -3.0864      2.00000
     12      -2.0643      2.00000
     13      -1.4906      2.00000
     14      -1.3053      2.00000
     15      -0.2787      2.00000
     16      -0.0589      2.00000
     17       0.0118      2.00000
     18       0.2150      2.00000
     19       0.3971      2.00000
     20       1.5804      2.00000
     21       1.9645      0.00003
     22       2.4988      0.00000
     23       5.5232      0.00000
     24       5.7966      0.00000
     25       5.8844      0.00000
     26       6.1645      0.00000
     27       7.0156      0.00000
     28       7.3803      0.00000
     29       8.1305      0.00000
     30       8.5061      0.00000
     31       8.8978      0.00000
     32       9.3162      0.00000
     33       9.5288      0.00000
     34      10.4944      0.00000
     35      10.7624      0.00000
     36      11.0390      0.00000
     37      11.2936      0.00000
     38      11.8356      0.00000
     39      12.1035      0.00000
     40      12.6786      0.00000
     41      13.1322      0.00000
     42      13.3968      0.00000
     43      13.6798      0.00000
     44      14.8115      0.00000
     45      15.3101      0.00000
     46      15.7251      0.00000
     47      15.8988      0.00000
     48      16.3947      0.00000

[...]

 k-point    12 :       0.3750    0.4167    0.3750
  band No.  band energies     occupation
      1     -12.1450      2.00000
      2     -11.7981      2.00000
      3      -8.5571      2.00000
      4      -8.2888      2.00000
      5      -6.0101      2.00000
      6      -5.7285      2.00000
      7      -5.4078      2.00000
      8      -4.6874      2.00000
      9      -4.4000      2.00000
     10      -3.3104      2.00000
     11      -2.2642      2.00000
     12      -2.0882      2.00000
     13      -1.9091      2.00000
     14      -1.4983      2.00000
     15      -0.4248      2.00000
     16      -0.2226      2.00000
     17       0.1103      2.00000
     18       0.4841      2.00000
     19       0.5300      2.00000
     20       1.3642      2.00000
     21       1.4725      2.00000
     22       1.6641      1.99998
     23       5.6676      0.00000
     24       6.0444      0.00000
     25       6.8648      0.00000
     26       7.1688      0.00000
     27       7.8858      0.00000
     28       8.0100      0.00000
     29       8.9140      0.00000
     30       9.1348      0.00000
     31       9.6778      0.00000
     32       9.9346      0.00000
     33      10.4015      0.00000
     34      10.8978      0.00000
     35      11.2656      0.00000
     36      11.5811      0.00000
     37      11.6683      0.00000
     38      12.0148      0.00000
     39      12.8341      0.00000
     40      13.0192      0.00000
     41      13.2024      0.00000
     42      13.4997      0.00000
     43      13.8502      0.00000
     44      14.2604      0.00000
     45      14.5320      0.00000
     46      14.9595      0.00000
     47      15.0761      0.00000
     48      15.2774      0.00000

 soft charge-density along one line, spin component           1
         0         1         2         3         4         5         6         7         8         9
 total charge-density along one line

------------------------ aborting loop because EDIFF is reached ----------------------------------------

  FORCE on cell =-STRESS in cart. coord.  units (eV):
  Direction    XX          YY          ZZ          XY          YZ          ZX
  Alpha Z    94.24358    94.24358    94.24358
  Ewald     -90.05465  -558.27634  -147.43815    -0.00000    -0.00000     0.00000
  Hartree   188.20001     3.53091   157.32169    -0.00000    -0.00000    -0.00000
  E(xc)    -134.91401  -135.84920  -134.88944     0.00000    -0.00000     0.00000
  Local    -496.15741   131.18502  -408.51129     0.00000    -0.00000    -0.00000
  n-local    -9.27573    -9.97671    -9.77663     0.00286    -0.02528     0.00712
  augment     1.30741     1.38186     1.33106    -0.00000    -0.00000     0.00000
  Kinetic   448.40289   472.47392   448.24387     0.21901     0.14110    -0.70425
  Fock        0.00000     0.00000     0.00000     0.00000     0.00000     0.00000
  Total       1.75209    -1.28697     0.52469     0.00000     0.00000     0.00000
  in kB      19.62028   -14.41180     5.87556     0.00000     0.00000     0.00000

 VOLUME and BASIS-vectors are now :
  energy-cutoff  :      450.00
  volume of cell :      143.07
      direct lattice vectors                 reciprocal lattice vectors
     5.697000000  0.000000000  0.000000000     0.175530981  0.000000000  0.000000000
     0.000000000  4.047900000  0.000000000     0.000000000  0.247041676  0.000000000
     0.000000000  0.000000000  6.204200000     0.000000000  0.000000000  0.161181135

  length of vectors
     5.697000000  4.047900000  6.204200000     0.175530981  0.247041676  0.161181135

 FORCES acting on ions
    electron-ion (+dipol)            ewald-force                    non-local-force                 convergence-correction
   0.494E+02 0.398E-12 -.249E+02   -.515E+02 0.211E-14 0.284E+02   0.190E+01 0.477E-19 -.332E+01   0.388E-05 0.561E-15 0.406E-04
   -.494E+02 -.246E-12 0.249E+02   0.515E+02 0.448E-16 -.284E+02   -.190E+01 -.492E-19 0.332E+01   -.388E-05 0.158E-15 -.406E-04
   -.494E+02 -.401E-12 -.249E+02   0.515E+02 0.587E-14 0.284E+02   -.190E+01 -.203E-18 -.332E+01   -.388E-05 -.175E-15 0.406E-04
   0.494E+02 0.425E-15 0.249E+02   -.515E+02 0.181E-14 -.284E+02   0.190E+01 0.197E-18 0.332E+01   0.388E-05 0.498E-15 -.406E-04
   0.312E+02 -.192E-12 -.526E+02   -.341E+02 0.342E-14 0.571E+02   0.198E+01 0.772E-19 -.408E+01   -.711E-04 0.740E-15 -.153E-03
   -.312E+02 -.367E-12 0.526E+02   0.341E+02 0.354E-14 -.571E+02   -.198E+01 -.126E-18 0.408E+01   0.711E-04 0.863E-16 0.153E-03
   -.312E+02 -.309E-12 -.526E+02   0.341E+02 0.299E-14 0.571E+02   -.198E+01 -.943E-19 -.408E+01   0.711E-04 0.464E-15 -.153E-03
   0.312E+02 -.313E-13 0.526E+02   -.341E+02 0.353E-14 -.571E+02   0.198E+01 0.126E-18 0.408E+01   -.711E-04 -.397E-16 0.153E-03
   -.190E-13 -.562E+02 -.155E+02   -.720E-14 0.613E+02 0.166E+02   0.268E-18 -.534E+01 -.115E+01   -.118E-13 -.447E-05 -.146E-04
   -.357E-13 0.562E+02 0.155E+02   0.108E-13 -.613E+02 -.166E+02   0.328E-18 0.534E+01 0.115E+01   0.723E-15 0.447E-05 0.146E-04
   -.189E-13 0.562E+02 -.155E+02   0.393E-14 -.613E+02 0.166E+02   0.198E-17 0.534E+01 -.115E+01   -.116E-13 0.447E-05 -.146E-04
   -.355E-13 -.562E+02 0.155E+02   0.643E-14 0.613E+02 -.166E+02   0.139E-17 -.534E+01 0.115E+01   0.645E-15 -.447E-05 0.146E-04
   -.141E-13 0.248E-12 -.619E+02   0.123E-13 0.532E-14 0.649E+02   0.590E-18 -.219E-19 -.269E+01   0.166E-13 -.170E-15 -.284E-04
   -.172E-13 0.705E-12 0.619E+02   0.173E-13 0.235E-14 -.649E+02   0.111E-17 -.123E-19 0.269E+01   -.149E-13 0.511E-15 0.284E-04
   -.103E-11 -.386E-12 -.338E-12   0.152E-13 0.767E-14 -.284E-13   0.228E-15 -.342E-19 -.222E-14   -.298E-13 0.195E-14 0.114E-13

 POSITION                                       TOTAL-FORCE (eV/Angst)
      2.96945      2.02395      3.95803        -0.191712     -0.000000      0.167566
      2.72755      2.02395      2.24617         0.191712     -0.000000     -0.167566
      5.57605      2.02395      3.95803         0.191712     -0.000000      0.167566
      0.12095      2.02395      2.24617        -0.191712      0.000000     -0.167566
      3.42333      2.02395      5.58322        -0.903726      0.000000      0.385657
      2.27367      2.02395      0.62098         0.903726     -0.000000     -0.385657
      5.12217      2.02395      5.58322         0.903726     -0.000000      0.385657
      0.57483      2.02395      0.62098        -0.903726     -0.000000     -0.385657
      4.27275      3.20476      4.52739        -0.000000     -0.244617     -0.114634
      1.42425      0.84314      1.67681        -0.000000      0.244617      0.114634
      4.27275      0.84314      4.52739        -0.000000      0.244617     -0.114634
      1.42425      3.20476      1.67681        -0.000000     -0.244617      0.114634
      1.42425      2.02395      3.24895        -0.000000      0.000000      0.273444
      4.27275      2.02395      2.95525        -0.000000      0.000000     -0.273444
    total drift:                               -0.000000     -0.000000     -0.000000

  FREE ENERGIE OF THE ION-ELECTRON SYSTEM (eV)
  free  energy   TOTEN  =       -90.58162380 eV

  energy  without entropy=      -90.57687727  energy(sigma->0) =      -90.57925053