 vasp.6.4.3 19Mar24 (build May 31 2024 16:31:43) complex

 executed on             LinuxIFC date 2024.11.11  15:08:40

 INCAR:
   SYSTEM = SC
   ISTART = 0
   ICHARG = 2
   PREC = Accurate
   ENCUT = 600
   LCHARG = .TRUE.
   LWAVE = .TRUE.
   ALGO = Normal
   NELM = 64
   EDIFF = 1E-6
   EDIFFG = -1E-3
   SIGMA = 0.1
   ISMEAR = 0
   SYMPREC = 1E-6
   IBRION = -1
   GGA = PE
   IVDW = 12

 POTCAR:    PAW_PBE B 06Sep2000
 POTCAR:    PAW_PBE B 06Sep2000
   VRHFIN =B: s2p1

   TITEL  = PAW_PBE B 06Sep2000
   POMASS =   10.811; ZVAL   =    3.000    mass and valenz
   ENMAX  =  318.614; ENMIN  =  238.960 eV

  PAW_PBE B 06Sep2000                   :

 POSCAR: o-B14
  positions in direct lattice
 IVDW         = 12
 VDW_S6       =    1.0000
 VDW_S8       =    0.7875
 VDW_A1       =    0.4289
 VDW_A2       =    4.4407
 VDW_RADIUS   =   50.2022 A
 VDW_CNRADIUS =   21.1671 A

 exchange-correlation table for PE
   RHO(1)=    0.500       N(1)  =     2000
   RHO(2)=  100.500       N(2)  =     4000

 ion  position               nearest neighbor table
   1  0.521  0.500  0.638-  14 1.65   5 1.68  13 1.70   2 1.73   9 1.85  11 1.85
   2  0.479  0.500  0.362-  13 1.65   6 1.68  14 1.70   1 1.73  10 1.85  12 1.85
   3  0.979  0.500  0.638-  14 1.65   7 1.68  13 1.70   4 1.73   9 1.85  11 1.85
   4  0.021  0.500  0.362-  13 1.65   8 1.68  14 1.70   3 1.73  10 1.85  12 1.85
   5  0.597  0.500  0.900-   6 1.67   1 1.68   7 1.74   9 1.81  11 1.81
   6  0.403  0.500  0.100-   5 1.67   2 1.68   8 1.74  10 1.81  12 1.81
   7  0.903  0.500  0.900-   8 1.67   3 1.68   5 1.74   9 1.81  11 1.81
   8  0.097  0.500  0.100-   7 1.67   4 1.68   6 1.74  10 1.81  12 1.81
   9  0.750  0.792  0.730-  11 1.69   7 1.81   5 1.81   3 1.85   1 1.85  14 1.97
  10  0.250  0.208  0.270-  12 1.69   8 1.81   6 1.81   4 1.85   2 1.85  13 1.97
  11  0.750  0.208  0.730-   9 1.69   7 1.81   5 1.81   3 1.85   1 1.85  14 1.97
  12  0.250  0.792  0.270-  10 1.69   8 1.81   6 1.81   4 1.85   2 1.85  13 1.97
  13  0.250  0.500  0.524-   2 1.65   4 1.65   3 1.70   1 1.70  10 1.97  12 1.97
  14  0.750  0.500  0.476-   1 1.65   3 1.65   2 1.70   4 1.70   9 1.97  11 1.97

  LATTYP: Found a simple orthorhombic cell.
 ALAT       =     4.0440580961
 B/A-ratio  =     1.4097153303
 C/A-ratio  =     1.5335761871

  Lattice vectors:

 A1 = (   0.0000000000,  -4.0440580961,   0.0000000000)
 A2 = (   5.7009706948,   0.0000000000,   0.0000000000)
 A3 = (   0.0000000000,   0.0000000000,   6.2018711955)

Analysis of symmetry for initial positions (statically):
 Subroutine PRICEL returns:
 Original cell was already a primitive cell.

 Routine SETGRP: Setting up the symmetry group for a
 simple orthorhombic supercell.

 Subroutine GETGRP returns: Found  8 space group operations
 (whereof  4 operations were pure point group operations)
 out of a pool of  8 trial point group operations.

The static configuration has the point symmetry C_2h.
 The point group associated with its full space group is D_2h.

Analysis of symmetry for dynamics (positions and initial velocities):
 Subroutine PRICEL returns:
 Original cell was already a primitive cell.

 Routine SETGRP: Setting up the symmetry group for a
 simple orthorhombic supercell.

 Subroutine GETGRP returns: Found  8 space group operations
 (whereof  4 operations were pure point group operations)
 out of a pool of  8 trial point group operations.

The dynamic configuration has the point symmetry C_2h.
 The point group associated with its full space group is D_2h.

 Subroutine INISYM returns: Found  8 space group operations
 (whereof  4 operations are pure point group operations),
 and found     1 'primitive' translations

                                     Primitive cell

  volume of cell :     142.9845

  direct lattice vectors                    reciprocal lattice vectors
     5.700970695  0.000000000  0.000000000     0.175408725  0.000000000  0.000000000
     0.000000000  4.044058096  0.000000000     0.000000000  0.247276368  0.000000000
     0.000000000  0.000000000  6.201871195     0.000000000  0.000000000  0.161241659

  length of vectors
     5.700970695  4.044058096  6.201871195     0.175408725  0.247276368  0.161241659

  position of ions in fractional coordinates (direct lattice)
     0.521289885  0.500000000  0.637957702
     0.478710115  0.500000000  0.362042298
     0.978710115  0.500000000  0.637957702
     0.021289885  0.500000000  0.362042298
     0.597449662  0.500000000  0.899868316
     0.402550338  0.500000000  0.100131684
     0.902550338  0.500000000  0.899868316
     0.097449662  0.500000000  0.100131684
     0.750000000  0.791564932  0.729579396
     0.250000000  0.208435068  0.270420604
     0.750000000  0.208435068  0.729579396
     0.250000000  0.791564932  0.270420604
     0.250000000  0.500000000  0.523993035
     0.750000000  0.500000000  0.476006965

  ion indices of the primitive-cell ions
   primitive index   ion index
                 1           1
                 2           2
                 3           3
                 4           4
                 5           5
                 6           6
                 7           7
                 8           8
                 9           9
                10          10
                11          11
                12          12
                13          13
                14          14

 KPOINTS: k-points

Automatic generation of k-mesh.
 Grid dimensions read from file:
 generate k-points for:   10   14    9

 Generating k-lattice:

  Cartesian coordinates                     Fractional coordinates (reciprocal lattice)
     0.017540872  0.000000000  0.000000000     0.100000000  0.000000000  0.000000000
     0.000000000  0.017662598  0.000000000     0.000000000  0.071428571  0.000000000
     0.000000000  0.000000000  0.017915740     0.000000000  0.000000000  0.111111111

  Length of vectors
     0.017540872  0.017662598  0.017915740

  Shift w.r.t. Gamma in fractional coordinates (k-lattice)
     0.500000000  0.500000000  0.000000000

 Subroutine IBZKPT returns following result:

 Found    175 irreducible k-points:

 Following reciprocal coordinates:
            Coordinates               Weight
  0.050000  0.035714  0.000000      4.000000
  0.150000  0.035714  0.000000      4.000000
  0.250000  0.035714  0.000000      4.000000
  0.350000  0.035714  0.000000      4.000000
  0.450000  0.035714  0.000000      4.000000
  0.050000  0.107143  0.000000      4.000000
  0.150000  0.107143  0.000000      4.000000
  0.250000  0.107143  0.000000      4.000000
  0.350000  0.107143  0.000000      4.000000
  0.450000  0.107143  0.000000      4.000000
  0.050000  0.178571  0.000000      4.000000
  0.150000  0.178571  0.000000      4.000000
  0.250000  0.178571  0.000000      4.000000
  0.350000  0.178571  0.000000      4.000000
  0.450000  0.178571  0.000000      4.000000
  0.050000  0.250000  0.000000      4.000000
  0.150000  0.250000  0.000000      4.000000
  0.250000  0.250000  0.000000      4.000000
  0.350000  0.250000  0.000000      4.000000
  0.450000  0.250000  0.000000      4.000000
  0.050000  0.321429  0.000000      4.000000
  0.150000  0.321429  0.000000      4.000000
  0.250000  0.321429  0.000000      4.000000
  0.350000  0.321429  0.000000      4.000000
  0.450000  0.321429  0.000000      4.000000
  0.050000  0.392857  0.000000      4.000000
  0.150000  0.392857  0.000000      4.000000
  0.250000  0.392857  0.000000      4.000000
  0.350000  0.392857  0.000000      4.000000
  0.450000  0.392857  0.000000      4.000000
  0.050000  0.464286  0.000000      4.000000
  0.150000  0.464286  0.000000      4.000000
  0.250000  0.464286  0.000000      4.000000
  0.350000  0.464286  0.000000      4.000000
  0.450000  0.464286  0.000000      4.000000
  0.050000  0.035714  0.111111      8.000000
  0.150000  0.035714  0.111111      8.000000
  0.250000  0.035714  0.111111      8.000000
  0.350000  0.035714  0.111111      8.000000
  0.450000  0.035714  0.111111      8.000000
  0.050000  0.107143  0.111111      8.000000
  0.150000  0.107143  0.111111      8.000000
  0.250000  0.107143  0.111111      8.000000
  0.350000  0.107143  0.111111      8.000000
  0.450000  0.107143  0.111111      8.000000
  0.050000  0.178571  0.111111      8.000000
  0.150000  0.178571  0.111111      8.000000
  0.250000  0.178571  0.111111      8.000000
  0.350000  0.178571  0.111111      8.000000
  0.450000  0.178571  0.111111      8.000000
  0.050000  0.250000  0.111111      8.000000
  0.150000  0.250000  0.111111      8.000000
  0.250000  0.250000  0.111111      8.000000
  0.350000  0.250000  0.111111      8.000000
  0.450000  0.250000  0.111111      8.000000
  0.050000  0.321429  0.111111      8.000000
  0.150000  0.321429  0.111111      8.000000
  0.250000  0.321429  0.111111      8.000000
  0.350000  0.321429  0.111111      8.000000
  0.450000  0.321429  0.111111      8.000000
[...]
  0.050000  0.321429  0.444444      8.000000
  0.150000  0.321429  0.444444      8.000000
  0.250000  0.321429  0.444444      8.000000
  0.350000  0.321429  0.444444      8.000000
  0.450000  0.321429  0.444444      8.000000
  0.050000  0.392857  0.444444      8.000000
  0.150000  0.392857  0.444444      8.000000
  0.250000  0.392857  0.444444      8.000000
  0.350000  0.392857  0.444444      8.000000
  0.450000  0.392857  0.444444      8.000000
  0.050000  0.464286  0.444444      8.000000
  0.150000  0.464286  0.444444      8.000000
  0.250000  0.464286  0.444444      8.000000
  0.350000  0.464286  0.444444      8.000000
  0.450000  0.464286  0.444444      8.000000

 Following cartesian coordinates:
            Coordinates               Weight
  0.008770  0.008831  0.000000      4.000000
  0.026311  0.008831  0.000000      4.000000
  0.043852  0.008831  0.000000      4.000000
  0.061393  0.008831  0.000000      4.000000
  0.078934  0.008831  0.000000      4.000000
  0.008770  0.026494  0.000000      4.000000
  0.026311  0.026494  0.000000      4.000000
  0.043852  0.026494  0.000000      4.000000
  0.061393  0.026494  0.000000      4.000000
  0.078934  0.026494  0.000000      4.000000
  0.008770  0.044156  0.000000      4.000000
  0.026311  0.044156  0.000000      4.000000
  0.043852  0.044156  0.000000      4.000000
  0.061393  0.044156  0.000000      4.000000
  0.078934  0.044156  0.000000      4.000000
  0.008770  0.061819  0.000000      4.000000
  0.026311  0.061819  0.000000      4.000000
  0.043852  0.061819  0.000000      4.000000
  0.061393  0.061819  0.000000      4.000000
  0.078934  0.061819  0.000000      4.000000
  0.008770  0.079482  0.000000      4.000000
  0.026311  0.079482  0.000000      4.000000
  0.043852  0.079482  0.000000      4.000000
  0.061393  0.079482  0.000000      4.000000
  0.078934  0.079482  0.000000      4.000000
  0.008770  0.097144  0.000000      4.000000
  0.026311  0.097144  0.000000      4.000000
  0.043852  0.097144  0.000000      4.000000
  0.061393  0.097144  0.000000      4.000000
  0.078934  0.097144  0.000000      4.000000
  0.008770  0.114807  0.000000      4.000000
  0.026311  0.114807  0.000000      4.000000
  0.043852  0.114807  0.000000      4.000000
  0.061393  0.114807  0.000000      4.000000
[...]
 k-point    27 :   0.1500 0.3929 0.0000  plane waves:    4778
 k-point    28 :   0.2500 0.3929 0.0000  plane waves:    4774
 k-point    29 :   0.3500 0.3929 0.0000  plane waves:    4801
 k-point    30 :   0.4500 0.3929 0.0000  plane waves:    4788
 k-point    31 :   0.0500 0.4643 0.0000  plane waves:    4782
 k-point    32 :   0.1500 0.4643 0.0000  plane waves:    4789
 k-point    33 :   0.2500 0.4643 0.0000  plane waves:    4787
 k-point    34 :   0.3500 0.4643 0.0000  plane waves:    4802
 k-point    35 :   0.4500 0.4643 0.0000  plane waves:    4791
 k-point    36 :   0.0500 0.0357 0.1111  plane waves:    4762
 k-point    37 :   0.1500 0.0357 0.1111  plane waves:    4769
 k-point    38 :   0.2500 0.0357 0.1111  plane waves:    4767
 k-point    39 :   0.3500 0.0357 0.1111  plane waves:    4767
 k-point    40 :   0.4500 0.0357 0.1111  plane waves:    4759
 k-point    41 :   0.0500 0.1071 0.1111  plane waves:    4749
 k-point    42 :   0.1500 0.1071 0.1111  plane waves:    4764
 k-point    43 :   0.2500 0.1071 0.1111  plane waves:    4767
 k-point    44 :   0.3500 0.1071 0.1111  plane waves:    4763
 k-point    45 :   0.4500 0.1071 0.1111  plane waves:    4763
 k-point    46 :   0.0500 0.1786 0.1111  plane waves:    4766
 k-point    47 :   0.1500 0.1786 0.1111  plane waves:    4765
 k-point    48 :   0.2500 0.1786 0.1111  plane waves:    4780
 k-point    49 :   0.3500 0.1786 0.1111  plane waves:    4775
 k-point    50 :   0.4500 0.1786 0.1111  plane waves:    4769
 k-point    51 :   0.0500 0.2500 0.1111  plane waves:    4771
 k-point    52 :   0.1500 0.2500 0.1111  plane waves:    4779
 k-point    53 :   0.2500 0.2500 0.1111  plane waves:    4773
 k-point    54 :   0.3500 0.2500 0.1111  plane waves:    4776
 k-point    55 :   0.4500 0.2500 0.1111  plane waves:    4774
 k-point    56 :   0.0500 0.3214 0.1111  plane waves:    4788
 k-point    57 :   0.1500 0.3214 0.1111  plane waves:    4776
 k-point    58 :   0.2500 0.3214 0.1111  plane waves:    4771
 k-point    59 :   0.3500 0.3214 0.1111  plane waves:    4772
 k-point    60 :   0.4500 0.3214 0.1111  plane waves:    4775
[...]
 k-point   161 :   0.0500 0.3214 0.4444  plane waves:    4785
 k-point   162 :   0.1500 0.3214 0.4444  plane waves:    4788
 k-point   163 :   0.2500 0.3214 0.4444  plane waves:    4774
 k-point   164 :   0.3500 0.3214 0.4444  plane waves:    4767
 k-point   165 :   0.4500 0.3214 0.4444  plane waves:    4769
 k-point   166 :   0.0500 0.3929 0.4444  plane waves:    4793
 k-point   167 :   0.1500 0.3929 0.4444  plane waves:    4781
 k-point   168 :   0.2500 0.3929 0.4444  plane waves:    4778
 k-point   169 :   0.3500 0.3929 0.4444  plane waves:    4767
 k-point   170 :   0.4500 0.3929 0.4444  plane waves:    4763
 k-point   171 :   0.0500 0.4643 0.4444  plane waves:    4782
 k-point   172 :   0.1500 0.4643 0.4444  plane waves:    4783
 k-point   173 :   0.2500 0.4643 0.4444  plane waves:    4779
 k-point   174 :   0.3500 0.4643 0.4444  plane waves:    4765
 k-point   175 :   0.4500 0.4643 0.4444  plane waves:    4757

 maximum and minimum number of plane-waves per node :      4802     4742

 maximum number of plane-waves:      4802
 maximum index in each direction:
   IXMAX=   11   IYMAX=    8   IZMAX=   12
   IXMIN=  -11   IYMIN=   -8   IZMIN=  -12

 serial   3D FFT for wavefunctions
 parallel 3D FFT for charge:
    minimum data exchange during FFTs selected (reduces bandwidth)

 Broyden mixing: mesh for mixing (old mesh)
   NGX = 23   NGY = 17   NGZ = 25
  (NGX  = 96   NGY  = 64   NGZ  =100)
  gives a total of   9775 points

 initial charge density was supplied:
 charge density of overlapping atoms calculated
 number of electron      42.0000000 magnetization
 keeping initial charge density in first step

 Maximum index for augmentation-charges          471 (set IRDMAX)

 First call to EWALD:  gamma=   0.339
 Maximum number of real-space cells 3x 3x 2
 Maximum number of reciprocal cells 3x 2x 3

--------------------------------------- Ionic step        1  -------------------------------------------

--------------------------------------- Iteration      1(   1)  ---------------------------------------

 eigenvalue-minimisations  : 16800
 total energy-change (2. order) : 0.7793319E+02  (-0.2000583E+04)
 number of electron      42.0000000 magnetization
 augmentation part       42.0000000 magnetization

 Free energy of the ion-electron system (eV)
  alpha Z        PSCENC =        94.30280740
  Ewald energy   TEWEN  =      -798.79353645
  -Hartree energ DENC   =      -269.52400652
  -exchange      EXHF   =         0.00000000
  -V(xc)+E(xc)   XCENC  =        97.46456534
  PAW double counting   =       608.99811708     -597.02363782
  entropy T*S    EENTRO =        -0.00855246
  eigenvalues    EBANDS =       -53.85698101
  atomic energy  EATOM  =       996.37441054
  Solvation  Ediel_sol  =         0.00000000
  free energy    TOTEN  =        77.93318611 eV

  energy without entropy =       77.94173857  energy(sigma->0) =       77.93746234

[...]

 eigenvalue-minimisations  : 22728
 total energy-change (2. order) :-0.1697448E+03  (-0.1591889E+03)
 number of electron      42.0000000 magnetization
 augmentation part       42.0000000 magnetization

[...]

 Broyden mixing:
  rms(total) = 0.12299E+01    rms(broyden)= 0.12299E+01
  rms(prec ) = 0.22533E+01
  weight for this iteration     100.00

[...]

 eigenvalues of (default mixing * dielectric matrix)
  average eigenvalue GAMMA=   2.0862
  2.0862

[...]

 eigenvalue-minimisations  : 25200
 total energy-change (2. order) : 0.1646814E+01  (-0.3191121E+00)
 number of electron      41.9999999 magnetization
 augmentation part       -0.1728743 magnetization

[...]

 Broyden mixing:
  rms(total) = 0.17482E-03    rms(broyden)= 0.17482E-03
  rms(prec ) = 0.25562E-03
  weight for this iteration     100.00

 eigenvalues of (default mixing * dielectric matrix)
  average eigenvalue GAMMA=   1.7861
  3.3013  2.4987  2.0615  1.8689  1.5050  1.0524  1.0006  1.0006

[...]

--------------------------------------- Iteration      1(  14)  ---------------------------------------

 eigenvalue-minimisations  : 20256
 total energy-change (2. order) :-0.6509149E-06  (-0.2722277E-07)
 number of electron      41.9999999 magnetization
 augmentation part       -0.1776337 magnetization

 Free energy of the ion-electron system (eV)
  alpha Z        PSCENC =        94.30280740
  Ewald energy   TEWEN  =      -798.79353645
  -Hartree energ DENC   =      -346.67361232
  -exchange      EXHF   =         0.00000000
  -V(xc)+E(xc)   XCENC  =       101.54545898
  PAW double counting   =      3724.99725569    -3714.18010640
  entropy T*S    EENTRO =        -0.01288252
  eigenvalues    EBANDS =      -148.20509935
  atomic energy  EATOM  =       996.37441054
  Solvation  Ediel_sol  =         0.00000000
  free energy    TOTEN  =       -90.64530443 eV

  energy without entropy =      -90.63242191  energy(sigma->0) =      -90.63886317

 average (electrostatic) potential at core
  the test charge radii are     0.7672
  (the norm of the test charge is              1.0000)
       1 -29.9629       2 -29.9629       3 -29.9629       4 -29.9629       5 -28.9397
       6 -28.9397       7 -28.9397       8 -28.9397       9 -29.3446      10 -29.3446
      11 -29.3446      12 -29.3446      13 -29.9132      14 -29.9132

 E-fermi :   1.9192     XC(G=0):  -9.4486     alpha+bet :-10.8673

 val. band max:        1.9122969546   @ k =   0.4500   0.0357   0.2222
 cond. band min:       1.9280688046   @ k =   0.2500   0.1786   0.0000
 fundamental gap:      0.0157718500
 Fermi energy:         1.9191636145

 k-point     1 :       0.0500    0.0357    0.0000
  band No.  band energies     occupation
      1     -12.6912      2.00000
      2     -11.5254      2.00000
      3      -8.6544      2.00000
      4      -8.3626      2.00000
      5      -6.0395      2.00000
      6      -5.1625      2.00000
      7      -4.7049      2.00000
      8      -4.2976      2.00000
      9      -4.0007      2.00000
     10      -3.4729      2.00000
     11      -2.5515      2.00000
     12      -2.3092      2.00000
     13      -1.7822      2.00000
     14      -1.1073      2.00000
     15      -0.0807      2.00000
     16       0.0066      2.00000
     17       0.0462      2.00000
     18       0.1005      2.00000
     19       0.6762      2.00000
     20       2.0744      0.02816
     21       2.0871      0.01757
     22       2.2498      0.00000
     23       5.5497      0.00000
     24       5.6864      0.00000
     25       5.7746      0.00000
     26       5.9913      0.00000
     27       6.7527      0.00000
     28       7.5693      0.00000
     29       7.9037      0.00000
     30       8.5272      0.00000
     31       8.9011      0.00000
     32       8.9443      0.00000
     33       9.0637      0.00000
     34      10.1139      0.00000
     35      11.2331      0.00000
     36      11.3406      0.00000
     37      11.5209      0.00000
     38      11.6743      0.00000
     39      12.0003      0.00000
     40      12.3428      0.00000
     41      12.9698      0.00000
     42      13.4072      0.00000
     43      13.4332      0.00000
     44      15.3955      0.00000
     45      15.5293      0.00000
     46      16.0438      0.00000
     47      16.3129      0.00000
     48      16.3337      0.00000

[...]

 k-point   175 :       0.4500    0.4643    0.4444
  band No.  band energies     occupation
      1     -11.9770      2.00000
      2     -11.8343      2.00000
      3      -8.5146      2.00000
      4      -8.3927      2.00000
      5      -5.9046      2.00000
      6      -5.7967      2.00000
      7      -4.8974      2.00000
      8      -4.5600      2.00000
      9      -4.4464      2.00000
     10      -3.9866      2.00000
     11      -2.1874      2.00000
     12      -2.1226      2.00000
     13      -2.0477      2.00000
     14      -1.7565      2.00000
     15      -0.2120      2.00000
     16      -0.0115      2.00000
     17       0.4221      2.00000
     18       0.4752      2.00000
     19       0.5116      2.00000
     20       0.8429      2.00000
     21       1.6670      1.99964
     22       1.7603      1.97533
     23       5.8490      0.00000
     24       6.0208      0.00000
     25       6.8764      0.00000
     26       7.4697      0.00000
     27       7.5126      0.00000
     28       7.6760      0.00000
     29       9.3734      0.00000
     30       9.5154      0.00000
     31       9.7559      0.00000
     32       9.8711      0.00000
     33      10.4003      0.00000
     34      10.8002      0.00000
     35      11.2194      0.00000
     36      11.5243      0.00000
     37      11.5618      0.00000
     38      11.6409      0.00000
     39      13.1043      0.00000
     40      13.2009      0.00000
     41      13.7156      0.00000
     42      14.0356      0.00000
     43      14.1833      0.00000
     44      14.2854      0.00000
     45      14.6258      0.00000
     46      14.6875      0.00000
     47      14.8497      0.00000
     48      15.0225      0.00000

 soft charge-density along one line, spin component           1
         0         1         2         3         4         5         6         7         8         9
 total charge-density along one line

------------------------ aborting loop because EDIFF is reached ----------------------------------------

         DFTD3 V3.0 Rev 1
 DF pbe
 parameters
 k1-k3        =   16.0000    1.3333   -4.0000
 Edisp (eV)   -1.96230

 E6    (eV) :    -1.3220
 E8    (eV) :    -0.6403
 % E8        : 32.63

  FORCE on cell =-STRESS in cart. coord.  units (eV):
  Direction    XX          YY          ZZ          XY          YZ          ZX
  Alpha Z    94.30281    94.30281    94.30281
  Ewald     -93.12989  -561.95728  -143.70902    -0.00000    -0.00000     0.00000
  Hartree   186.60431     4.34843   155.72071    -0.00000    -0.00000    -0.00000
  E(xc)    -134.85300  -135.83538  -134.82532     0.00000    -0.00000     0.00000
  Local    -491.05517   131.16983  -408.59587     0.00000     0.00000    -0.00000
  n-local    -8.84473   -10.97545    -9.32981    -0.00740    -0.00436     0.06550
  augment     1.34808     1.39191     1.36847     0.00000    -0.00000     0.00000
  Kinetic   445.62301   477.53495   445.10550     0.25149     0.05340    -1.09768
  Fock        0.00000     0.00000     0.00000     0.00000     0.00000     0.00000
  vdW        -2.04354    -2.13134    -2.01285     0.00000     0.00000     0.00000
  Total      -2.04813    -2.15151    -1.97537     0.00000     0.00000     0.00000
  in kB     -22.94978   -24.10827   -22.13457     0.00000     0.00000     0.00000

 VOLUME and BASIS-vectors are now :
  energy-cutoff  :      600.00
  volume of cell :      142.98
      direct lattice vectors                 reciprocal lattice vectors
     5.700970695  0.000000000  0.000000000     0.175408725  0.000000000  0.000000000
     0.000000000  4.044058096  0.000000000     0.000000000  0.247276368  0.000000000
     0.000000000  0.000000000  6.201871195     0.000000000  0.000000000  0.161241659

  length of vectors
     5.700970695  4.044058096  6.201871195     0.175408725  0.247276368  0.161241659

 FORCES acting on ions
    electron-ion (+dipol)            ewald-force                    non-local-force                 convergence-correction
   0.492E+02 0.866E-12 -.247E+02   -.511E+02 0.185E-14 0.280E+02   0.184E+01 0.120E-18 -.334E+01   -.429E-04 -.118E-14 0.725E-04
   -.492E+02 -.173E-12 0.247E+02   0.511E+02 0.687E-16 -.280E+02   -.184E+01 0.320E-18 0.334E+01   0.429E-04 0.896E-15 -.725E-04
   -.492E+02 0.847E-12 -.247E+02   0.511E+02 -.149E-14 0.280E+02   -.184E+01 0.871E-19 -.334E+01   0.429E-04 -.551E-15 0.725E-04
   0.492E+02 0.686E-13 0.247E+02   -.511E+02 -.171E-14 -.280E+02   0.184E+01 -.159E-18 0.334E+01   -.429E-04 0.343E-15 -.725E-04
   0.291E+02 -.296E-12 -.508E+02   -.315E+02 0.387E-14 0.550E+02   0.247E+01 0.690E-20 -.423E+01   -.698E-04 -.691E-15 -.850E-04
   -.291E+02 0.363E-12 0.508E+02   0.315E+02 0.345E-14 -.550E+02   -.247E+01 -.827E-20 0.423E+01   0.698E-04 0.971E-15 0.850E-04
   -.291E+02 -.130E-11 -.508E+02   0.315E+02 0.431E-14 0.550E+02   -.247E+01 -.152E-19 -.423E+01   0.698E-04 -.106E-14 -.850E-04
   0.291E+02 0.113E-13 0.508E+02   -.315E+02 0.344E-14 -.550E+02   0.247E+01 0.798E-20 0.423E+01   -.698E-04 0.750E-15 0.850E-04
   0.305E-13 -.552E+02 -.161E+02   0.938E-14 0.606E+02 0.172E+02   0.126E-17 -.543E+01 -.111E+01   0.507E-14 -.211E-04 0.601E-04
   0.120E-13 0.552E+02 0.161E+02   0.312E-14 -.606E+02 -.172E+02   -.293E-18 0.543E+01 0.111E+01   -.301E-14 0.211E-04 -.601E-04
   0.307E-13 0.552E+02 -.161E+02   0.561E-14 -.606E+02 0.172E+02   -.240E-17 0.543E+01 -.111E+01   0.459E-14 0.211E-04 0.601E-04
   0.116E-13 -.552E+02 0.161E+02   -.935E-15 0.606E+02 -.172E+02   -.202E-17 -.543E+01 0.111E+01   -.252E-14 -.211E-04 -.601E-04
   -.451E-15 0.364E-12 -.622E+02   -.559E-13 0.564E-16 0.647E+02   -.145E-18 0.349E-18 -.257E+01   0.109E-14 -.250E-15 0.229E-04
   0.153E-13 -.904E-13 0.622E+02   -.571E-13 -.472E-15 -.647E+02   -.826E-19 0.399E-19 0.257E+01   -.351E-14 -.875E-16 -.229E-04
   -.122E-11 0.704E-12 0.273E-10   -.389E-13 -.415E-15 -.142E-13   -.369E-17 0.889E-15 -.133E-14   0.960E-14 -.912E-15 -.737E-13

 POSITION                                       TOTAL-FORCE (eV/Angst)
      2.97186      2.02203      3.95653        -0.012148      0.000000     -0.000437
      2.72911      2.02203      2.24534         0.012148     -0.000000      0.000437
      5.57960      2.02203      3.95653         0.012148     -0.000000     -0.000437
      0.12137      2.02203      2.24534        -0.012148      0.000000      0.000437
      3.40604      2.02203      5.58087        -0.007095      0.000000      0.007593
      2.29493      2.02203      0.62100         0.007095     -0.000000     -0.007593
      5.14541      2.02203      5.58087         0.007095      0.000000      0.007593
      0.55556      2.02203      0.62100        -0.007095      0.000000     -0.007593
      4.27573      3.20113      4.52476         0.000000      0.001234     -0.005794
      1.42524      0.84292      1.67711         0.000000     -0.001234      0.005794
      4.27573      0.84292      4.52476         0.000000     -0.001234     -0.005794
      1.42524      3.20113      1.67711         0.000000      0.001234      0.005794
      1.42524      2.02203      3.24974         0.000000     -0.000000      0.012681
      4.27573      2.02203      2.95213         0.000000      0.000000     -0.012681
    total drift:                               -0.000000      0.000000      0.000000

  FREE ENERGIE OF THE ION-ELECTRON SYSTEM (eV)
  free  energy   TOTEN  =       -92.60760069 eV

  energy  without entropy=      -92.59471818  energy(sigma->0) =      -92.60115944

 writing wavefunctions