 vasp.6.4.3 19Mar24 (build May 31 2024 16:31:43) complex

 executed on             LinuxIFC date 2024.10.31  00:21:50

 INCAR:
   SYSTEM = Kpoints
   ISTART = 0
   ICHARG = 2
   PREC = Accurate
   ENCUT = 480
   LCHARG = .FALSE.
   LWAVE = .FALSE.
   ALGO = Normal
   NELM = 100
   EDIFF = 1E-6
   EDIFFG = -1E-3
   SIGMA = 0.05
   ISMEAR = 0
   ISPIN = 1
   NSW = 0
   IBRION = -1
   POTIM = .5
   ISIF = 2
   GGA = PE

 POTCAR:    PAW_PBE B 06Sep2000
 POTCAR:    PAW_PBE B 06Sep2000
   VRHFIN =B: s2p1

   TITEL  = PAW_PBE B 06Sep2000
   POMASS =   10.811; ZVAL   =    3.000    mass and valenz
   ENMAX  =  318.614; ENMIN  =  238.960 eV

  PAW_PBE B 06Sep2000                   :

 POSCAR: o-B14
  positions in direct lattice

 exchange-correlation table for PE
   RHO(1)=    0.500       N(1)  =     2000
   RHO(2)=  100.500       N(2)  =     4000

 ion  position               nearest neighbor table
   1  0.521  0.500  0.638-  14 1.64   5 1.69  13 1.70   2 1.73   9 1.85  11 1.85
   2  0.479  0.500  0.362-  13 1.64   6 1.69  14 1.70   1 1.73  10 1.85  12 1.85
   3  0.979  0.500  0.638-  14 1.64   7 1.69  13 1.70   4 1.73   9 1.85  11 1.85
   4  0.021  0.500  0.362-  13 1.64   8 1.69  14 1.70   3 1.73  10 1.85  12 1.85
   5  0.601  0.500  0.900-   1 1.69   6 1.69   7 1.70   9 1.80  11 1.80
   6  0.399  0.500  0.100-   2 1.69   5 1.69   8 1.70  10 1.80  12 1.80
   7  0.899  0.500  0.900-   3 1.69   8 1.69   5 1.70   9 1.80  11 1.80
   8  0.101  0.500  0.100-   4 1.69   7 1.69   6 1.70  10 1.80  12 1.80
   9  0.750  0.792  0.730-  11 1.69   7 1.80   5 1.80   3 1.85   1 1.85  14 1.97
  10  0.250  0.208  0.270-  12 1.69   8 1.80   6 1.80   4 1.85   2 1.85  13 1.97
  11  0.750  0.208  0.730-   9 1.69   7 1.80   5 1.80   3 1.85   1 1.85  14 1.97
  12  0.250  0.792  0.270-  10 1.69   8 1.80   6 1.80   4 1.85   2 1.85  13 1.97
  13  0.250  0.500  0.524-   2 1.64   4 1.64   3 1.70   1 1.70  10 1.97  12 1.97
  14  0.750  0.500  0.476-   1 1.64   3 1.64   2 1.70   4 1.70   9 1.97  11 1.97

  LATTYP: Found a simple orthorhombic cell.
 ALAT       =     4.0479000000
 B/A-ratio  =     1.4073964278
 C/A-ratio  =     1.5326959658

  Lattice vectors:

 A1 = (   0.0000000000,  -4.0479000000,   0.0000000000)
 A2 = (   5.6970000000,   0.0000000000,   0.0000000000)
 A3 = (   0.0000000000,   0.0000000000,   6.2042000000)

Analysis of symmetry for initial positions (statically):
 Subroutine PRICEL returns:
 Original cell was already a primitive cell.

 Routine SETGRP: Setting up the symmetry group for a
 simple orthorhombic supercell.

 Subroutine GETGRP returns: Found  8 space group operations
 (whereof  4 operations were pure point group operations)
 out of a pool of  8 trial point group operations.

The static configuration has the point symmetry C_2h.
 The point group associated with its full space group is D_2h.

Analysis of symmetry for dynamics (positions and initial velocities):
 Subroutine PRICEL returns:
 Original cell was already a primitive cell.

 Routine SETGRP: Setting up the symmetry group for a
 simple orthorhombic supercell.

 Subroutine GETGRP returns: Found  8 space group operations
 (whereof  4 operations were pure point group operations)
 out of a pool of  8 trial point group operations.

The dynamic configuration has the point symmetry C_2h.
 The point group associated with its full space group is D_2h.

 Subroutine INISYM returns: Found  8 space group operations
 (whereof  4 operations are pure point group operations),
 and found     1 'primitive' translations

                                     Primitive cell

  volume of cell :     143.0744

  direct lattice vectors                    reciprocal lattice vectors
     5.697000000  0.000000000  0.000000000     0.175530981  0.000000000  0.000000000
     0.000000000  4.047900000  0.000000000     0.000000000  0.247041676  0.000000000
     0.000000000  0.000000000  6.204200000     0.000000000  0.000000000  0.161181135

  length of vectors
     5.697000000  4.047900000  6.204200000     0.175530981  0.247041676  0.161181135

  position of ions in fractional coordinates (direct lattice)
     0.521230000  0.500000000  0.637960000
     0.478770000  0.500000000  0.362040000
     0.978770000  0.500000000  0.637960000
     0.021230000  0.500000000  0.362040000
     0.600900000  0.500000000  0.899910000
     0.399100000  0.500000000  0.100090000
     0.899100000  0.500000000  0.899910000
     0.100900000  0.500000000  0.100090000
     0.750000000  0.791710000  0.729730000
     0.250000000  0.208290000  0.270270000
     0.750000000  0.208290000  0.729730000
     0.250000000  0.791710000  0.270270000
     0.250000000  0.500000000  0.523670000
     0.750000000  0.500000000  0.476330000

  ion indices of the primitive-cell ions
   primitive index   ion index
                 1           1
                 2           2
                 3           3
                 4           4
                 5           5
                 6           6
                 7           7
                 8           8
                 9           9
                10          10
                11          11
                12          12
                13          13
                14          14

 KPOINTS: k-points

Automatic generation of k-mesh.
 Grid dimensions read from file:
 generate k-points for:    3    4    3

 Generating k-lattice:

  Cartesian coordinates                     Fractional coordinates (reciprocal lattice)
     0.058510327  0.000000000  0.000000000     0.333333333  0.000000000  0.000000000
     0.000000000  0.061760419  0.000000000     0.000000000  0.250000000  0.000000000
     0.000000000  0.000000000  0.053727045     0.000000000  0.000000000  0.333333333

  Length of vectors
     0.058510327  0.061760419  0.053727045

  Shift w.r.t. Gamma in fractional coordinates (k-lattice)
     0.000000000  0.500000000  0.000000000

 Subroutine IBZKPT returns following result:

 Found      8 irreducible k-points:

 Following reciprocal coordinates:
            Coordinates               Weight
  0.000000  0.125000  0.000000      2.000000
  0.333333  0.125000  0.000000      4.000000
  0.000000  0.375000  0.000000      2.000000
  0.333333  0.375000  0.000000      4.000000
  0.000000  0.125000  0.333333      4.000000
  0.333333  0.125000  0.333333      8.000000
  0.000000  0.375000  0.333333      4.000000
  0.333333  0.375000  0.333333      8.000000

 Following cartesian coordinates:
            Coordinates               Weight
  0.000000  0.030880  0.000000      2.000000
  0.058510  0.030880  0.000000      4.000000
  0.000000  0.092641  0.000000      2.000000
  0.058510  0.092641  0.000000      4.000000
  0.000000  0.030880  0.053727      4.000000
  0.058510  0.030880  0.053727      8.000000
  0.000000  0.092641  0.053727      4.000000
  0.058510  0.092641  0.053727      8.000000

 SYSTEM =  Kpoints
 POSCAR =  o-B14

 Startparameter for this run:
   NWRITE =      2    write-flag & timer
   PREC   = accura    normal or accurate (medium, high low for compatibility)
   ISTART =      0    job   : 0-new  1-cont  2-samecut
   ICHARG =      2    charge: 1-file 2-atom 10-const
   ISPIN  =      1    spin polarized calculation?
   LNONCOLLINEAR =      F non collinear calculations
   LSORBIT =      F    spin-orbit coupling
   INIWAV =      1    electr: 0-lowe 1-rand  2-diag
   LASPH  =      F    aspherical Exc in radial PAW
 Electronic Relaxation 1
   ENCUT  =  480.0 eV  35.28 Ry    5.94 a.u.  10.18  7.23 11.08*2*pi/ulx,y,z
   ENINI  =  480.0     initial cutoff
   ENAUG  =  535.5 eV  augmentation charge cutoff
   NELM   =    100;   NELMIN=  2; NELMDL= -5     # of ELM steps
   EDIFF  = 0.1E-05   stopping-criterion for ELM
   LREAL  =      F    real-space projection
   NLSPLINE    = F    spline interpolate recip. space projectors
   LCOMPAT=      F    compatible to vasp.4.4
   GGA_COMPAT  = T    GGA compatible to vasp.4.4-vasp.4.6
   LMAXPAW     = -100 max onsite density
   LMAXMIX     =    2 max onsite mixed and CHGCAR
   VOSKOWN=      0    Vosko Wilk Nusair interpolation
   ROPT   =    0.00000
 Ionic relaxation
   EDIFFG = -.1E-02   stopping-criterion for IOM
   NSW    =      0    number of steps for IOM
   NBLOCK =      1;   KBLOCK =      1    inner block; outer block
   IBRION =     -1    ionic relax: 0-MD 1-quasi-New 2-CG
   NFREE  =      0    steps in history (QN), initial steepest desc. (CG)
   ISIF   =      2    stress and relaxation
   IWAVPR =     10    prediction:  0-non 1-charg 2-wave 3-comb
   ISYM   =      2    0-nonsym 1-usesym 2-fastsym
   LCORR  =      T    Harris-Foulkes like correction to forces

   POTIM  = 0.5000    time-step for ionic-motion
   TEIN   =    0.0    initial temperature
   TEBEG  =    0.0;   TEEND  =   0.0 temperature during run
   SMASS  =  -3.00    Nose mass-parameter (am)
   estimated Nose-frequenzy (Omega)   =  0.10E-29 period in steps = 0.13E+47 mass=  -0.742E-27a.u.
   SCALEE = 1.0000    scale energy and forces
   NPACO  =    256;   APACO  = 10.0  distance and # of slots for P.C.
   PSTRESS=    0.0 pullay stress

  Mass of Ions in am
   POMASS =  10.81
  Ionic Valenz
   ZVAL   =   3.00
  Atomic Wigner-Seitz radii
  virtual crystal weights
   VCA    =   1.00
   NELECT =      42.0000    total number of electrons
   NUPDOWN=      -1.0000    fix difference up-down

 DOS related values:
   EMIN   =  10.00;   EMAX   =-10.00  energy-range for DOS
   EFERMI =   0.00;   METHOD = LEGACY
   ISMEAR =     0;   SIGMA  =   0.05  broadening in eV -4-tet -1-fermi 0-gaus

 Electronic relaxation 2 (details)
   IALGO  =     38    algorithm
   LDIAG  =      T    sub-space diagonalisation (order eigenvalues)
   LSUBROT=      F    optimize rotation matrix (better conditioning)
   TURBO    =      0    0=normal 1=particle mesh
   IRESTART =      0    0=no restart 2=restart with 2 vectors
   NREBOOT  =      0    no. of reboots
   NMIN     =      0    reboot dimension
   EREF     =   0.00    reference energy to select bands
   IMIX   =      4    mixing-type and parameters
     AMIX     =   0.40;   BMIX     =  1.00
     AMIX_MAG =   1.60;   BMIX_MAG =  1.00
     AMIN     =   0.10
     WC   =   100.;   INIMIX=   1;  MIXPRE=   1;  MAXMIX= -45

 Intra band minimization:
   WEIMIN = 0.0000     energy-eigenvalue tresh-hold
   EBREAK =  0.52E-08  absolut break condition
   DEPER  =   0.30     relativ break condition

   TIME   =   0.40     timestep for ELM

  volume/ion in A,a.u.               =      10.22        68.97
  Fermi-wavevector in a.u.,A,eV,Ry     =   1.088021  2.056062 16.106441  1.183790
  Thomas-Fermi vector in A             =   2.224193

 Write flags
   LWAVE        =      F    write WAVECAR
   LDOWNSAMPLE  =      F    k-point downsampling of WAVECAR
   LCHARG       =      F    write CHGCAR
   LVTOT        =      F    write LOCPOT, total local potential
   LVHAR        =      F    write LOCPOT, Hartree potential only
   WRT_POTENTIAL= false  ! write potential to hdf5 file
   LELF         =      F    write electronic localiz. function (ELF)
   LORBIT       =      0    0 simple, 1 ext, 2 COOP (PROOUT), +10 PAW based schemes

 Dipole corrections
   LMONO      =      F    monopole corrections only (constant potential shift)
[...]
 Hartree-type preconditioning will be used
 using additional bands           27
 reciprocal scheme for non local part
 use partial core corrections
 calculate Harris-corrections to forces
   (improved forces if not selfconsistent)
 use gradient corrections
 use of overlap-Matrix (Vanderbilt PP)
 Gauss-broadening in eV      SIGMA  =   0.05

  energy-cutoff  :      480.00
  volume of cell :      143.07
      direct lattice vectors                 reciprocal lattice vectors
     5.697000000  0.000000000  0.000000000     0.175530981  0.000000000  0.000000000
     0.000000000  4.047900000  0.000000000     0.000000000  0.247041676  0.000000000
     0.000000000  0.000000000  6.204200000     0.000000000  0.000000000  0.161181135

[...]

 k-points in units of 2pi/SCALE and weight: k-points
   0.00000000  0.03088021  0.00000000       0.056
   0.05851033  0.03088021  0.00000000       0.111
   0.00000000  0.09264063  0.00000000       0.056
   0.05851033  0.09264063  0.00000000       0.111
   0.00000000  0.03088021  0.05372705       0.111
   0.05851033  0.03088021  0.05372705       0.222
   0.00000000  0.09264063  0.05372705       0.111
   0.05851033  0.09264063  0.05372705       0.222

 k-points in reciprocal lattice and weights: k-points
   0.00000000  0.12500000  0.00000000       0.056
   0.33333333  0.12500000  0.00000000       0.111
   0.00000000  0.37500000  0.00000000       0.056
   0.33333333  0.37500000  0.00000000       0.111
   0.00000000  0.12500000  0.33333333       0.111
   0.33333333  0.12500000  0.33333333       0.222
   0.00000000  0.37500000  0.33333333       0.111
   0.33333333  0.37500000  0.33333333       0.222

 position of ions in fractional coordinates (direct lattice)
   0.52123000  0.50000000  0.63796000
   0.47877000  0.50000000  0.36204000
   0.97877000  0.50000000  0.63796000
   0.02123000  0.50000000  0.36204000
   0.60090000  0.50000000  0.89991000
   0.39910000  0.50000000  0.10009000
   0.89910000  0.50000000  0.89991000
   0.10090000  0.50000000  0.10009000
   0.75000000  0.79171000  0.72973000
   0.25000000  0.20829000  0.27027000
   0.75000000  0.20829000  0.72973000
   0.25000000  0.79171000  0.27027000
   0.25000000  0.50000000  0.52367000
   0.75000000  0.50000000  0.47633000

 position of ions in cartesian coordinates  (Angst):
   2.96944731  2.02395000  3.95803143
   2.72755269  2.02395000  2.24616857
   5.57605269  2.02395000  3.95803143
   0.12094731  2.02395000  2.24616857
   3.42332730  2.02395000  5.58322162
   2.27367270  2.02395000  0.62097838
   5.12217270  2.02395000  5.58322162
   0.57482730  2.02395000  0.62097838
   4.27275000  3.20476291  4.52739087
   1.42425000  0.84313709  1.67680913
   4.27275000  0.84313709  4.52739087
   1.42425000  3.20476291  1.67680913
   1.42425000  2.02395000  3.24895341
   4.27275000  2.02395000  2.95524659

 k-point     1 :   0.0000 0.1250 0.0000  plane waves:    3409
 k-point     2 :   0.3333 0.1250 0.0000  plane waves:    3407
 k-point     3 :   0.0000 0.3750 0.0000  plane waves:    3394
 k-point     4 :   0.3333 0.3750 0.0000  plane waves:    3421
 k-point     5 :   0.0000 0.1250 0.3333  plane waves:    3424
 k-point     6 :   0.3333 0.1250 0.3333  plane waves:    3420
 k-point     7 :   0.0000 0.3750 0.3333  plane waves:    3413
 k-point     8 :   0.3333 0.3750 0.3333  plane waves:    3426

 maximum and minimum number of plane-waves per node :      3426     3394

 maximum number of plane-waves:      3426
 maximum index in each direction:
   IXMAX=   10   IYMAX=    7   IZMAX=   11
   IXMIN=  -10   IYMIN=   -7   IZMIN=  -11

 serial   3D FFT for wavefunctions
 parallel 3D FFT for charge:
    minimum data exchange during FFTs selected (reduces bandwidth)

 Broyden mixing: mesh for mixing (old mesh)
   NGX = 21   NGY = 15   NGZ = 23
  (NGX  = 84   NGY  = 60   NGZ  = 96)
  gives a total of   7245 points

 initial charge density was supplied:
 charge density of overlapping atoms calculated
 number of electron      42.0000000 magnetization
 keeping initial charge density in first step

 Maximum index for augmentation-charges          566 (set IRDMAX)

 First call to EWALD:  gamma=   0.339
 Maximum number of real-space cells 3x 3x 2
 Maximum number of reciprocal cells 3x 2x 3

--------------------------------------- Ionic step        1  -------------------------------------------

--------------------------------------- Iteration      1(   1)  ---------------------------------------

 eigenvalue-minimisations  :   768
 total energy-change (2. order) : 0.5334196E+02  (-0.1747873E+04)
 number of electron      42.0000000 magnetization
 augmentation part       42.0000000 magnetization

 Free energy of the ion-electron system (eV)
  alpha Z        PSCENC =        94.24357992
  Ewald energy   TEWEN  =      -795.76658092
  -Hartree energ DENC   =      -271.33601302
  -exchange      EXHF   =         0.00000000
  -V(xc)+E(xc)   XCENC  =        97.50108136
  PAW double counting   =       608.99811708     -597.02363782
  entropy T*S    EENTRO =        -0.00564360
  eigenvalues    EBANDS =       -79.63507111
  atomic energy  EATOM  =       996.36613177
  Solvation  Ediel_sol  =         0.00000000
  free energy    TOTEN  =        53.34196366 eV

  energy without entropy =       53.34760726  energy(sigma->0) =       53.34478546

[...]

 eigenvalue-minimisations  :  1104
 total energy-change (2. order) :-0.1460757E+03  (-0.1371873E+03)
 number of electron      42.0000000 magnetization
 augmentation part       42.0000000 magnetization

[...]

 Broyden mixing:
  rms(total) = 0.12428E+01    rms(broyden)= 0.12428E+01
  rms(prec ) = 0.22815E+01
  weight for this iteration     100.00

[...]

 eigenvalues of (default mixing * dielectric matrix)
  average eigenvalue GAMMA=   2.0807
  2.0807

[...]

 eigenvalue-minimisations  :  1152
 total energy-change (2. order) : 0.1660778E+01  (-0.3496893E+00)
 number of electron      41.9999999 magnetization
 augmentation part       -0.1666930 magnetization

[...]

 Broyden mixing:
  rms(total) = 0.18181E-03    rms(broyden)= 0.18180E-03
  rms(prec ) = 0.33231E-03
  weight for this iteration     100.00

 eigenvalues of (default mixing * dielectric matrix)
  average eigenvalue GAMMA=   1.6263
  3.3096  2.4674  2.1519  0.4870  1.6360  1.4764  0.9348  1.0869  1.0869

[...]

--------------------------------------- Iteration      1(  15)  ---------------------------------------

 eigenvalue-minimisations  :  1008
 total energy-change (2. order) :-0.4578712E-06  (-0.3285566E-07)
 number of electron      41.9999999 magnetization
 augmentation part       -0.1712429 magnetization

 Free energy of the ion-electron system (eV)
  alpha Z        PSCENC =        94.24357992
  Ewald energy   TEWEN  =      -795.76658092
  -Hartree energ DENC   =      -349.19473657
  -exchange      EXHF   =         0.00000000
  -V(xc)+E(xc)   XCENC  =       101.59811728
  PAW double counting   =      3723.61354151    -3712.80787227
  entropy T*S    EENTRO =        -0.01366136
  eigenvalues    EBANDS =      -148.29934334
  atomic energy  EATOM  =       996.36613177
  Solvation  Ediel_sol  =         0.00000000
  free energy    TOTEN  =       -90.26082398 eV

  energy without entropy =      -90.24716262  energy(sigma->0) =      -90.25399330

 average (electrostatic) potential at core
  the test charge radii are     0.7672
  (the norm of the test charge is              1.0000)
       1 -29.9797       2 -29.9797       3 -29.9797       4 -29.9797       5 -28.9000
       6 -28.9000       7 -28.9000       8 -28.9000       9 -29.3741      10 -29.3741
      11 -29.3741      12 -29.3741      13 -29.8952      14 -29.8952

 E-fermi :   1.7286     XC(G=0):  -9.4399     alpha+bet :-10.8605

 val. band max:        1.7248982190   @ k =   0.3333   0.3750   0.0000
 cond. band min:       1.7390906457   @ k =   0.0000   0.1250   0.0000
 fundamental gap:      0.0141924268
 Fermi energy:         1.7286147984

 k-point     1 :       0.0000    0.1250    0.0000
  band No.  band energies     occupation
      1     -12.7015      2.00000
      2     -11.5503      2.00000
      3      -8.6313      2.00000
      4      -8.3800      2.00000
      5      -6.0307      2.00000
      6      -5.0054      2.00000
      7      -4.7321      2.00000
      8      -4.5931      2.00000
      9      -4.2442      2.00000
     10      -3.5483      2.00000
     11      -3.4512      2.00000
     12      -1.6503      2.00000
     13      -1.0371      2.00000
     14      -0.8237      2.00000
     15      -0.3773      2.00000
     16      -0.3745      2.00000
     17       0.1843      2.00000
     18       0.2916      2.00000
     19       0.6961      2.00000
     20       1.6724      1.88816
     21       1.7391      0.76700
     22       2.3137      0.00000
     23       5.5597      0.00000
     24       5.5863      0.00000
     25       5.7905      0.00000
     26       6.0662      0.00000
     27       7.2144      0.00000
     28       7.9344      0.00000
     29       8.0286      0.00000
     30       8.2439      0.00000
     31       8.7598      0.00000
     32       9.1395      0.00000
     33       9.1496      0.00000
     34      10.7178      0.00000
     35      11.3035      0.00000
     36      11.4728      0.00000
     37      11.6782      0.00000
     38      11.9676      0.00000
     39      12.0750      0.00000
     40      12.7767      0.00000
     41      12.7936      0.00000
     42      13.0280      0.00000
     43      13.1363      0.00000
     44      15.1967      0.00000
     45      15.4774      0.00000
     46      15.7118      0.00000
     47      15.7725      0.00000
     48      16.1350      0.00000

[...]

 k-point     8 :       0.3333    0.3750    0.3333
  band No.  band energies     occupation
      1     -12.2281      2.00000
      2     -11.7569      2.00000
      3      -8.5878      2.00000
      4      -8.2358      2.00000
      5      -5.9054      2.00000
      6      -5.7066      2.00000
      7      -5.4782      2.00000
      8      -4.8106      2.00000
      9      -4.4531      2.00000
     10      -3.0071      2.00000
     11      -2.4629      2.00000
     12      -1.9254      2.00000
     13      -1.6841      2.00000
     14      -1.4197      2.00000
     15      -0.5143      2.00000
     16      -0.4138      2.00000
     17       0.0521      2.00000
     18       0.4918      2.00000
     19       0.6186      2.00000
     20       1.1843      2.00000
     21       1.5854      1.99995
     22       1.7623      0.34075
     23       5.5422      0.00000
     24       5.9781      0.00000
     25       6.8896      0.00000
     26       7.1568      0.00000
     27       8.0003      0.00000
     28       8.2467      0.00000
     29       8.5908      0.00000
     30       9.0291      0.00000
     31       9.4310      0.00000
     32       9.8832      0.00000
     33      10.3184      0.00000
     34      10.8344      0.00000
     35      11.2908      0.00000
     36      11.7683      0.00000
     37      11.8922      0.00000
     38      12.0137      0.00000
     39      12.3613      0.00000
     40      12.8735      0.00000
     41      13.0251      0.00000
     42      13.3560      0.00000
     43      13.8433      0.00000
     44      14.3328      0.00000
     45      14.7618      0.00000
     46      14.8946      0.00000
     47      15.2618      0.00000
     48      15.4588      0.00000

 soft charge-density along one line, spin component           1
         0         1         2         3         4         5         6         7         8         9
 total charge-density along one line

------------------------ aborting loop because EDIFF is reached ----------------------------------------

  FORCE on cell =-STRESS in cart. coord.  units (eV):
  Direction    XX          YY          ZZ          XY          YZ          ZX
  Alpha Z    94.24358    94.24358    94.24358
  Ewald     -90.05465  -558.27634  -147.43815    -0.00000    -0.00000     0.00000
  Hartree   187.31635     5.28343   156.59272    -0.00000    -0.00000    -0.00000
  E(xc)    -134.92385  -135.89415  -134.89033    -0.00000    -0.00000    -0.00000
  Local    -494.24410   127.13454  -406.53442    -0.00000     0.00000     0.00000
  n-local    -9.11888   -10.98855    -9.65469     0.02886    -0.01472    -0.28315
  augment     1.29537     1.34328     1.32146     0.00000     0.00000     0.00000
  Kinetic   446.94758   477.45875   446.15771     0.08658    -0.00228     1.19293
  Fock        0.00000     0.00000     0.00000     0.00000     0.00000     0.00000
  Total       1.46141     0.30453    -0.20212     0.00000     0.00000    -0.00000
  in kB      16.36520     3.41021    -2.26343     0.00000     0.00000    -0.00000

 VOLUME and BASIS-vectors are now :
  energy-cutoff  :      480.00
  volume of cell :      143.07
      direct lattice vectors                 reciprocal lattice vectors
     5.697000000  0.000000000  0.000000000     0.175530981  0.000000000  0.000000000
     0.000000000  4.047900000  0.000000000     0.000000000  0.247041676  0.000000000
     0.000000000  0.000000000  6.204200000     0.000000000  0.000000000  0.161181135

  length of vectors
     5.697000000  4.047900000  6.204200000     0.175530981  0.247041676  0.161181135

 FORCES acting on ions
    electron-ion (+dipol)            ewald-force                    non-local-force                 convergence-correction
   0.496E+02 -.310E-12 -.250E+02   -.515E+02 0.211E-14 0.284E+02   0.182E+01 -.236E-17 -.328E+01   0.519E-03 0.343E-14 0.102E-03
   -.496E+02 -.325E-12 0.250E+02   0.515E+02 0.448E-16 -.284E+02   -.182E+01 -.190E-17 0.328E+01   -.519E-03 0.267E-14 -.102E-03
   -.496E+02 -.271E-12 -.250E+02   0.515E+02 0.587E-14 0.284E+02   -.182E+01 0.237E-17 -.328E+01   -.519E-03 0.281E-14 0.102E-03
   0.496E+02 -.616E-14 0.250E+02   -.515E+02 0.181E-14 -.284E+02   0.182E+01 0.192E-17 0.328E+01   0.519E-03 0.317E-14 -.102E-03
   0.314E+02 0.807E-12 -.526E+02   -.341E+02 0.342E-14 0.571E+02   0.199E+01 -.412E-18 -.408E+01   0.316E-03 0.177E-14 -.437E-03
   -.314E+02 0.250E-12 0.526E+02   0.341E+02 0.354E-14 -.571E+02   -.199E+01 0.311E-18 0.408E+01   -.316E-03 0.314E-14 0.437E-03
   -.314E+02 0.840E-12 -.526E+02   0.341E+02 0.299E-14 0.571E+02   -.199E+01 0.420E-18 -.408E+01   -.316E-03 0.143E-14 -.437E-03
   0.314E+02 0.964E-14 0.526E+02   -.341E+02 0.353E-14 -.571E+02   0.199E+01 -.291E-18 0.408E+01   0.316E-03 0.368E-14 0.437E-03
   -.183E-13 -.558E+02 -.155E+02   -.720E-14 0.613E+02 0.166E+02   -.932E-18 -.537E+01 -.113E+01   0.737E-14 0.710E-03 0.617E-04
   -.365E-13 0.558E+02 0.155E+02   0.108E-13 -.613E+02 -.166E+02   0.637E-19 0.537E+01 0.113E+01   0.104E-13 -.710E-03 -.617E-04
   -.186E-13 0.558E+02 -.155E+02   0.393E-14 -.613E+02 0.166E+02   0.735E-18 0.537E+01 -.113E+01   0.816E-14 -.710E-03 0.617E-04
   -.372E-13 -.558E+02 0.155E+02   0.643E-14 0.613E+02 -.166E+02   0.104E-18 -.537E+01 0.113E+01   0.944E-14 0.710E-03 -.617E-04
   -.180E-13 0.167E-13 -.621E+02   0.123E-13 0.532E-14 0.649E+02   0.127E-18 -.138E-20 -.268E+01   0.699E-14 0.307E-14 -.611E-03
   -.106E-13 0.647E-12 0.621E+02   0.173E-13 0.235E-14 -.649E+02   -.630E-19 -.397E-20 0.268E+01   -.931E-14 0.342E-14 0.611E-03
   -.653E-13 0.122E-11 -.152E-11   0.152E-13 0.767E-14 -.284E-13   0.222E-15 -.888E-15 0.888E-15   0.459E-13 0.253E-13 -.327E-13

 POSITION                                       TOTAL-FORCE (eV/Angst)
      2.96945      2.02395      3.95803        -0.112180     -0.000000      0.073448
      2.72755      2.02395      2.24617         0.112180     -0.000000     -0.073448
      5.57605      2.02395      3.95803         0.112180     -0.000000      0.073448
      0.12095      2.02395      2.24617        -0.112180      0.000000     -0.073448
      3.42333      2.02395      5.58322        -0.760805     -0.000000      0.339575
      2.27367      2.02395      0.62098         0.760805      0.000000     -0.339575
      5.12217      2.02395      5.58322         0.760805      0.000000      0.339575
      0.57483      2.02395      0.62098        -0.760805     -0.000000     -0.339575
      4.27275      3.20476      4.52739        -0.000000      0.108249     -0.065693
      1.42425      0.84314      1.67681        -0.000000     -0.108249      0.065693
      4.27275      0.84314      4.52739        -0.000000     -0.108249     -0.065693
      1.42425      3.20476      1.67681        -0.000000      0.108249      0.065693
      1.42425      2.02395      3.24895        -0.000000     -0.000000      0.104244
      4.27275      2.02395      2.95525        -0.000000      0.000000     -0.104244
    total drift:                               -0.000000      0.000000     -0.000000

  FREE ENERGIE OF THE ION-ELECTRON SYSTEM (eV)
  free  energy   TOTEN  =       -90.26082398 eV

  energy  without entropy=      -90.24716262  energy(sigma->0) =      -90.25399330