 vasp.6.4.3 19Mar24 (build May 31 2024 16:31:43) complex

 executed on             LinuxIFC date 2024.10.31  01:08:09

 INCAR:
   SYSTEM = Kpoints
   ISTART = 0
   ICHARG = 2
   PREC = Accurate
   ENCUT = 860
   LCHARG = .FALSE.
   LWAVE = .FALSE.
   ALGO = Normal
   NELM = 100
   EDIFF = 1E-6
   EDIFFG = -1E-3
   SIGMA = 0.05
   ISMEAR = 0
   ISPIN = 1
   NSW = 0
   IBRION = -1
   POTIM = .5
   ISIF = 2
   GGA = PE

 POTCAR:    PAW_PBE B 06Sep2000
 POTCAR:    PAW_PBE B 06Sep2000
   VRHFIN =B: s2p1

   TITEL  = PAW_PBE B 06Sep2000
   POMASS =   10.811; ZVAL   =    3.000    mass and valenz
   ENMAX  =  318.614; ENMIN  =  238.960 eV

  PAW_PBE B 06Sep2000                   :

 POSCAR: o-B14
  positions in direct lattice

 exchange-correlation table for PE
   RHO(1)=    0.500       N(1)  =     2000
   RHO(2)=  100.500       N(2)  =     4000

 ion  position               nearest neighbor table
   1  0.521  0.500  0.638-  14 1.64   5 1.69  13 1.70   2 1.73   9 1.85  11 1.85
   2  0.479  0.500  0.362-  13 1.64   6 1.69  14 1.70   1 1.73  10 1.85  12 1.85
   3  0.979  0.500  0.638-  14 1.64   7 1.69  13 1.70   4 1.73   9 1.85  11 1.85
   4  0.021  0.500  0.362-  13 1.64   8 1.69  14 1.70   3 1.73  10 1.85  12 1.85
   5  0.601  0.500  0.900-   1 1.69   6 1.69   7 1.70   9 1.80  11 1.80
   6  0.399  0.500  0.100-   2 1.69   5 1.69   8 1.70  10 1.80  12 1.80
   7  0.899  0.500  0.900-   3 1.69   8 1.69   5 1.70   9 1.80  11 1.80
   8  0.101  0.500  0.100-   4 1.69   7 1.69   6 1.70  10 1.80  12 1.80
   9  0.750  0.792  0.730-  11 1.69   7 1.80   5 1.80   3 1.85   1 1.85  14 1.97
  10  0.250  0.208  0.270-  12 1.69   8 1.80   6 1.80   4 1.85   2 1.85  13 1.97
  11  0.750  0.208  0.730-   9 1.69   7 1.80   5 1.80   3 1.85   1 1.85  14 1.97
  12  0.250  0.792  0.270-  10 1.69   8 1.80   6 1.80   4 1.85   2 1.85  13 1.97
  13  0.250  0.500  0.524-   2 1.64   4 1.64   3 1.70   1 1.70  10 1.97  12 1.97
  14  0.750  0.500  0.476-   1 1.64   3 1.64   2 1.70   4 1.70   9 1.97  11 1.97

  LATTYP: Found a simple orthorhombic cell.
 ALAT       =     4.0479000000
 B/A-ratio  =     1.4073964278
 C/A-ratio  =     1.5326959658

  Lattice vectors:

 A1 = (   0.0000000000,  -4.0479000000,   0.0000000000)
 A2 = (   5.6970000000,   0.0000000000,   0.0000000000)
 A3 = (   0.0000000000,   0.0000000000,   6.2042000000)

Analysis of symmetry for initial positions (statically):
 Subroutine PRICEL returns:
 Original cell was already a primitive cell.

 Routine SETGRP: Setting up the symmetry group for a
 simple orthorhombic supercell.

 Subroutine GETGRP returns: Found  8 space group operations
 (whereof  4 operations were pure point group operations)
 out of a pool of  8 trial point group operations.

The static configuration has the point symmetry C_2h.
 The point group associated with its full space group is D_2h.

Analysis of symmetry for dynamics (positions and initial velocities):
 Subroutine PRICEL returns:
 Original cell was already a primitive cell.

 Routine SETGRP: Setting up the symmetry group for a
 simple orthorhombic supercell.

 Subroutine GETGRP returns: Found  8 space group operations
 (whereof  4 operations were pure point group operations)
 out of a pool of  8 trial point group operations.

The dynamic configuration has the point symmetry C_2h.
 The point group associated with its full space group is D_2h.

 Subroutine INISYM returns: Found  8 space group operations
 (whereof  4 operations are pure point group operations),
 and found     1 'primitive' translations

                                     Primitive cell

  volume of cell :     143.0744

  direct lattice vectors                    reciprocal lattice vectors
     5.697000000  0.000000000  0.000000000     0.175530981  0.000000000  0.000000000
     0.000000000  4.047900000  0.000000000     0.000000000  0.247041676  0.000000000
     0.000000000  0.000000000  6.204200000     0.000000000  0.000000000  0.161181135

  length of vectors
     5.697000000  4.047900000  6.204200000     0.175530981  0.247041676  0.161181135

  position of ions in fractional coordinates (direct lattice)
     0.521230000  0.500000000  0.637960000
     0.478770000  0.500000000  0.362040000
     0.978770000  0.500000000  0.637960000
     0.021230000  0.500000000  0.362040000
     0.600900000  0.500000000  0.899910000
     0.399100000  0.500000000  0.100090000
     0.899100000  0.500000000  0.899910000
     0.100900000  0.500000000  0.100090000
     0.750000000  0.791710000  0.729730000
     0.250000000  0.208290000  0.270270000
     0.750000000  0.208290000  0.729730000
     0.250000000  0.791710000  0.270270000
     0.250000000  0.500000000  0.523670000
     0.750000000  0.500000000  0.476330000

  ion indices of the primitive-cell ions
   primitive index   ion index
                 1           1
                 2           2
                 3           3
                 4           4
                 5           5
                 6           6
                 7           7
                 8           8
                 9           9
                10          10
                11          11
                12          12
                13          13
                14          14

 KPOINTS: k-points

Automatic generation of k-mesh.
 Grid dimensions read from file:
 generate k-points for:   19   27   17

 Generating k-lattice:

  Cartesian coordinates                     Fractional coordinates (reciprocal lattice)
     0.009238473  0.000000000  0.000000000     0.052631579  0.000000000  0.000000000
     0.000000000  0.009149692  0.000000000     0.000000000  0.037037037  0.000000000
     0.000000000  0.000000000  0.009481243     0.000000000  0.000000000  0.058823529

  Length of vectors
     0.009238473  0.009149692  0.009481243

  Shift w.r.t. Gamma in fractional coordinates (k-lattice)
     0.000000000  0.000000000  0.000000000

 Subroutine IBZKPT returns following result:

 Found   1260 irreducible k-points:

 Following reciprocal coordinates:
            Coordinates               Weight
  0.000000  0.000000  0.000000      1.000000
  0.052632  0.000000  0.000000      2.000000
  0.105263  0.000000  0.000000      2.000000
  0.157895  0.000000  0.000000      2.000000
  0.210526  0.000000  0.000000      2.000000
  0.263158  0.000000  0.000000      2.000000
  0.315789  0.000000  0.000000      2.000000
  0.368421  0.000000  0.000000      2.000000
  0.421053  0.000000  0.000000      2.000000
  0.473684  0.000000  0.000000      2.000000
  0.000000  0.037037  0.000000      2.000000
  0.052632  0.037037  0.000000      4.000000
  0.105263  0.037037  0.000000      4.000000
  0.157895  0.037037  0.000000      4.000000
  0.210526  0.037037  0.000000      4.000000
  0.263158  0.037037  0.000000      4.000000
  0.315789  0.037037  0.000000      4.000000
  0.368421  0.037037  0.000000      4.000000
  0.421053  0.037037  0.000000      4.000000
  0.473684  0.037037  0.000000      4.000000
  0.000000  0.074074  0.000000      2.000000
  0.052632  0.074074  0.000000      4.000000
  0.105263  0.074074  0.000000      4.000000
  0.157895  0.074074  0.000000      4.000000
  0.210526  0.074074  0.000000      4.000000
  0.263158  0.074074  0.000000      4.000000
  0.315789  0.074074  0.000000      4.000000
  0.368421  0.074074  0.000000      4.000000
  0.421053  0.074074  0.000000      4.000000
  0.473684  0.074074  0.000000      4.000000
  0.000000  0.111111  0.000000      2.000000
  0.052632  0.111111  0.000000      4.000000
  0.105263  0.111111  0.000000      4.000000
  0.157895  0.111111  0.000000      4.000000
  0.210526  0.111111  0.000000      4.000000
  0.263158  0.111111  0.000000      4.000000
  0.315789  0.111111  0.000000      4.000000
  0.368421  0.111111  0.000000      4.000000
  0.421053  0.111111  0.000000      4.000000
  0.473684  0.111111  0.000000      4.000000
  0.000000  0.148148  0.000000      2.000000
  0.052632  0.148148  0.000000      4.000000
  0.105263  0.148148  0.000000      4.000000
  0.157895  0.148148  0.000000      4.000000
  0.210526  0.148148  0.000000      4.000000
  0.263158  0.148148  0.000000      4.000000
  0.315789  0.148148  0.000000      4.000000
  0.368421  0.148148  0.000000      4.000000
  0.421053  0.148148  0.000000      4.000000
  0.473684  0.148148  0.000000      4.000000
  0.000000  0.185185  0.000000      2.000000
  0.052632  0.185185  0.000000      4.000000
  0.105263  0.185185  0.000000      4.000000
  0.157895  0.185185  0.000000      4.000000
  0.210526  0.185185  0.000000      4.000000
  0.263158  0.185185  0.000000      4.000000
  0.315789  0.185185  0.000000      4.000000
  0.368421  0.185185  0.000000      4.000000
  0.421053  0.185185  0.000000      4.000000
  0.473684  0.185185  0.000000      4.000000
[...]
  0.263158  0.444444  0.470588      8.000000
  0.315789  0.444444  0.470588      8.000000
  0.368421  0.444444  0.470588      8.000000
  0.421053  0.444444  0.470588      8.000000
  0.473684  0.444444  0.470588      8.000000
  0.000000  0.481481  0.470588      4.000000
  0.052632  0.481481  0.470588      8.000000
  0.105263  0.481481  0.470588      8.000000
  0.157895  0.481481  0.470588      8.000000
  0.210526  0.481481  0.470588      8.000000
  0.263158  0.481481  0.470588      8.000000
  0.315789  0.481481  0.470588      8.000000
  0.368421  0.481481  0.470588      8.000000
  0.421053  0.481481  0.470588      8.000000
  0.473684  0.481481  0.470588      8.000000

 Following cartesian coordinates:
            Coordinates               Weight
  0.000000  0.000000  0.000000      1.000000
  0.009238  0.000000  0.000000      2.000000
  0.018477  0.000000  0.000000      2.000000
  0.027715  0.000000  0.000000      2.000000
  0.036954  0.000000  0.000000      2.000000
  0.046192  0.000000  0.000000      2.000000
  0.055431  0.000000  0.000000      2.000000
  0.064669  0.000000  0.000000      2.000000
  0.073908  0.000000  0.000000      2.000000
  0.083146  0.000000  0.000000      2.000000
  0.000000  0.009150  0.000000      2.000000
  0.009238  0.009150  0.000000      4.000000
  0.018477  0.009150  0.000000      4.000000
  0.027715  0.009150  0.000000      4.000000
  0.036954  0.009150  0.000000      4.000000
  0.046192  0.009150  0.000000      4.000000
  0.055431  0.009150  0.000000      4.000000
  0.064669  0.009150  0.000000      4.000000
  0.073908  0.009150  0.000000      4.000000
  0.083146  0.009150  0.000000      4.000000
  0.000000  0.018299  0.000000      2.000000
  0.009238  0.018299  0.000000      4.000000
  0.018477  0.018299  0.000000      4.000000
  0.027715  0.018299  0.000000      4.000000
  0.036954  0.018299  0.000000      4.000000
  0.046192  0.018299  0.000000      4.000000
  0.055431  0.018299  0.000000      4.000000
  0.064669  0.018299  0.000000      4.000000
  0.073908  0.018299  0.000000      4.000000
  0.083146  0.018299  0.000000      4.000000
  0.000000  0.027449  0.000000      2.000000
  0.009238  0.027449  0.000000      4.000000
  0.018477  0.027449  0.000000      4.000000
  0.027715  0.027449  0.000000      4.000000
  0.036954  0.027449  0.000000      4.000000
  0.046192  0.027449  0.000000      4.000000
  0.055431  0.027449  0.000000      4.000000
  0.064669  0.027449  0.000000      4.000000
[...]
 k-point    23 :   0.1053 0.0741 0.0000  plane waves:    8213
 k-point    24 :   0.1579 0.0741 0.0000  plane waves:    8201
 k-point    25 :   0.2105 0.0741 0.0000  plane waves:    8196
 k-point    26 :   0.2632 0.0741 0.0000  plane waves:    8202
 k-point    27 :   0.3158 0.0741 0.0000  plane waves:    8202
 k-point    28 :   0.3684 0.0741 0.0000  plane waves:    8202
 k-point    29 :   0.4211 0.0741 0.0000  plane waves:    8207
 k-point    30 :   0.4737 0.0741 0.0000  plane waves:    8204
 k-point    31 :   0.0000 0.1111 0.0000  plane waves:    8221
 k-point    32 :   0.0526 0.1111 0.0000  plane waves:    8202
 k-point    33 :   0.1053 0.1111 0.0000  plane waves:    8195
 k-point    34 :   0.1579 0.1111 0.0000  plane waves:    8204
 k-point    35 :   0.2105 0.1111 0.0000  plane waves:    8187
 k-point    36 :   0.2632 0.1111 0.0000  plane waves:    8189
 k-point    37 :   0.3158 0.1111 0.0000  plane waves:    8204
 k-point    38 :   0.3684 0.1111 0.0000  plane waves:    8202
 k-point    39 :   0.4211 0.1111 0.0000  plane waves:    8199
 k-point    40 :   0.4737 0.1111 0.0000  plane waves:    8189
 k-point    41 :   0.0000 0.1481 0.0000  plane waves:    8193
 k-point    42 :   0.0526 0.1481 0.0000  plane waves:    8195
 k-point    43 :   0.1053 0.1481 0.0000  plane waves:    8191
 k-point    44 :   0.1579 0.1481 0.0000  plane waves:    8199
 k-point    45 :   0.2105 0.1481 0.0000  plane waves:    8184
 k-point    46 :   0.2632 0.1481 0.0000  plane waves:    8197
 k-point    47 :   0.3158 0.1481 0.0000  plane waves:    8205
 k-point    48 :   0.3684 0.1481 0.0000  plane waves:    8180
 k-point    49 :   0.4211 0.1481 0.0000  plane waves:    8169
 k-point    50 :   0.4737 0.1481 0.0000  plane waves:    8168
 k-point    51 :   0.0000 0.1852 0.0000  plane waves:    8199
 k-point    52 :   0.0526 0.1852 0.0000  plane waves:    8195
 k-point    53 :   0.1053 0.1852 0.0000  plane waves:    8193
 k-point    54 :   0.1579 0.1852 0.0000  plane waves:    8200
 k-point    55 :   0.2105 0.1852 0.0000  plane waves:    8209
 k-point    56 :   0.2632 0.1852 0.0000  plane waves:    8195
 k-point    57 :   0.3158 0.1852 0.0000  plane waves:    8191
 k-point    58 :   0.3684 0.1852 0.0000  plane waves:    8176
 k-point    59 :   0.4211 0.1852 0.0000  plane waves:    8167
 k-point    60 :   0.4737 0.1852 0.0000  plane waves:    8158
[...]
 k-point  1246 :   0.2632 0.4444 0.4706  plane waves:    8183
 k-point  1247 :   0.3158 0.4444 0.4706  plane waves:    8174
 k-point  1248 :   0.3684 0.4444 0.4706  plane waves:    8186
 k-point  1249 :   0.4211 0.4444 0.4706  plane waves:    8184
 k-point  1250 :   0.4737 0.4444 0.4706  plane waves:    8183
 k-point  1251 :   0.0000 0.4815 0.4706  plane waves:    8210
 k-point  1252 :   0.0526 0.4815 0.4706  plane waves:    8228
 k-point  1253 :   0.1053 0.4815 0.4706  plane waves:    8213
 k-point  1254 :   0.1579 0.4815 0.4706  plane waves:    8205
 k-point  1255 :   0.2105 0.4815 0.4706  plane waves:    8197
 k-point  1256 :   0.2632 0.4815 0.4706  plane waves:    8182
 k-point  1257 :   0.3158 0.4815 0.4706  plane waves:    8181
 k-point  1258 :   0.3684 0.4815 0.4706  plane waves:    8185
 k-point  1259 :   0.4211 0.4815 0.4706  plane waves:    8189
 k-point  1260 :   0.4737 0.4815 0.4706  plane waves:    8189

 maximum and minimum number of plane-waves per node :      8237     8158

 maximum number of plane-waves:      8237
 maximum index in each direction:
   IXMAX=   13   IYMAX=    9   IZMAX=   14
   IXMIN=  -14   IYMIN=  -10   IZMIN=  -15

 serial   3D FFT for wavefunctions
 parallel 3D FFT for charge:
    minimum data exchange during FFTs selected (reduces bandwidth)

 Broyden mixing: mesh for mixing (old mesh)
   NGX = 27   NGY = 19   NGZ = 29
  (NGX  =108   NGY  = 80   NGZ  =120)
  gives a total of  14877 points

 initial charge density was supplied:
 charge density of overlapping atoms calculated
 number of electron      42.0000000 magnetization
 keeping initial charge density in first step

 Maximum index for augmentation-charges         1080 (set IRDMAX)

 First call to EWALD:  gamma=   0.339
 Maximum number of real-space cells 3x 3x 2
 Maximum number of reciprocal cells 3x 2x 3

--------------------------------------- Ionic step        1  -------------------------------------------

--------------------------------------- Iteration      1(   1)  ---------------------------------------

 eigenvalue-minimisations  :120960
 total energy-change (2. order) : 0.1260247E+03  (-0.2444907E+04)
 number of electron      42.0000000 magnetization
 augmentation part       42.0000000 magnetization

 Free energy of the ion-electron system (eV)
  alpha Z        PSCENC =        94.24357992
  Ewald energy   TEWEN  =      -795.76658092
  -Hartree energ DENC   =      -271.33601302
  -exchange      EXHF   =         0.00000000
  -V(xc)+E(xc)   XCENC  =        97.50108148
  PAW double counting   =       608.99811708     -597.02363782
  entropy T*S    EENTRO =        -0.00227734
  eigenvalues    EBANDS =        -6.97093376
  atomic energy  EATOM  =       996.38137530
  Solvation  Ediel_sol  =         0.00000000
  free energy    TOTEN  =       126.02471092 eV

  energy without entropy =      126.02698827  energy(sigma->0) =      126.02584960

[...]

 eigenvalue-minimisations  :162600
 total energy-change (2. order) :-0.2155329E+03  (-0.2003940E+03)
 number of electron      42.0000000 magnetization
 augmentation part       42.0000000 magnetization

[...]

 Broyden mixing:
  rms(total) = 0.12336E+01    rms(broyden)= 0.12336E+01
  rms(prec ) = 0.22675E+01
  weight for this iteration     100.00

[...]

 eigenvalues of (default mixing * dielectric matrix)
  average eigenvalue GAMMA=   2.0704
  2.0704

[...]

 eigenvalue-minimisations  :180600
 total energy-change (2. order) : 0.1650972E+01  (-0.3208626E+00)
 number of electron      42.0000000 magnetization
 augmentation part       -0.1727201 magnetization

[...]

 Broyden mixing:
  rms(total) = 0.71316E-04    rms(broyden)= 0.71316E-04
  rms(prec ) = 0.11666E-03
  weight for this iteration     100.00

 eigenvalues of (default mixing * dielectric matrix)
  average eigenvalue GAMMA=   1.7769
  3.3486  2.4269  2.3565  1.8408  1.5952  1.2721  1.0421  1.0421  1.0675

[...]

--------------------------------------- Iteration      1(  15)  ---------------------------------------

 eigenvalue-minimisations  :145056
 total energy-change (2. order) :-0.1953972E-06  (-0.1291550E-07)
 number of electron      42.0000000 magnetization
 augmentation part       -0.1776309 magnetization

 Free energy of the ion-electron system (eV)
  alpha Z        PSCENC =        94.24357992
  Ewald energy   TEWEN  =      -795.76658092
  -Hartree energ DENC   =      -349.13027596
  -exchange      EXHF   =         0.00000000
  -V(xc)+E(xc)   XCENC  =       101.59795243
  PAW double counting   =      3724.56048654    -3713.74611110
  entropy T*S    EENTRO =        -0.00365332
  eigenvalues    EBANDS =      -148.75101648
  atomic energy  EATOM  =       996.38137530
  Solvation  Ediel_sol  =         0.00000000
  free energy    TOTEN  =       -90.61424358 eV

  energy without entropy =      -90.61059026  energy(sigma->0) =      -90.61241692

 average (electrostatic) potential at core
  the test charge radii are     0.7672
  (the norm of the test charge is              1.0000)
       1 -29.9789       2 -29.9789       3 -29.9789       4 -29.9789       5 -28.9358
       6 -28.9358       7 -28.9358       8 -28.9358       9 -29.3504      10 -29.3504
      11 -29.3504      12 -29.3504      13 -29.9151      14 -29.9151

 E-fermi :   1.8776     XC(G=0):  -9.4405     alpha+bet :-10.8605

 val. band max:        1.8766288896   @ k =   0.4737   0.0741   0.2353
 cond. band min:       1.8777387673   @ k =   0.3684   0.4074   0.0588
 fundamental gap:      0.0011098778
 Fermi energy:         1.8775639831

 k-point     1 :       0.0000    0.0000    0.0000
  band No.  band energies     occupation
      1     -12.7332      2.00000
      2     -11.5762      2.00000
      3      -8.6622      2.00000
      4      -8.4250      2.00000
      5      -6.0776      2.00000
      6      -5.0596      2.00000
      7      -4.6386      2.00000
      8      -4.3498      2.00000
      9      -3.9737      2.00000
     10      -3.5989      2.00000
     11      -2.4222      2.00000
     12      -2.2428      2.00000
     13      -2.1836      2.00000
     14      -1.0532      2.00000
     15      -0.0377      2.00000
     16      -0.0038      2.00000
     17       0.1491      2.00000
     18       0.1726      2.00000
     19       0.5642      2.00000
     20       2.0792      0.00000
     21       2.1254      0.00000
     22       2.2142      0.00000
     23       5.4109      0.00000
     24       5.8011      0.00000
     25       5.8166      0.00000
     26       5.9101      0.00000
     27       6.7851      0.00000
     28       7.6720      0.00000
     29       7.7005      0.00000
     30       8.6335      0.00000
     31       8.7518      0.00000
     32       8.8522      0.00000
     33       9.0399      0.00000
     34      10.0290      0.00000
     35      11.1439      0.00000
     36      11.3988      0.00000
     37      11.7687      0.00000
     38      11.8011      0.00000
     39      11.8983      0.00000
     40      12.3538      0.00000
     41      12.8039      0.00000
     42      13.3938      0.00000
     43      13.5726      0.00000
     44      15.5536      0.00000
     45      15.5669      0.00000
     46      15.9412      0.00000
     47      16.3574      0.00000
     48      16.5977      0.00000

[...]

 k-point  1260 :       0.4737    0.4815    0.4706
  band No.  band energies     occupation
      1     -11.9846      2.00000
      2     -11.9116      2.00000
      3      -8.5272      2.00000
      4      -8.4680      2.00000
      5      -5.9150      2.00000
      6      -5.8603      2.00000
      7      -4.6964      2.00000
      8      -4.5488      2.00000
      9      -4.4029      2.00000
     10      -4.1848      2.00000
     11      -2.2137      2.00000
     12      -2.1854      2.00000
     13      -1.9914      2.00000
     14      -1.8428      2.00000
     15      -0.1226      2.00000
     16       0.0081      2.00000
     17       0.4348      2.00000
     18       0.4646      2.00000
     19       0.5802      2.00000
     20       0.7430      2.00000
     21       1.6631      2.00000
     22       1.7105      2.00000
     23       5.9028      0.00000
     24       6.0008      0.00000
     25       6.9783      0.00000
     26       7.3072      0.00000
     27       7.4533      0.00000
     28       7.5155      0.00000
     29       9.5036      0.00000
     30       9.6401      0.00000
     31       9.8762      0.00000
     32       9.9663      0.00000
     33      10.4928      0.00000
     34      10.6795      0.00000
     35      11.2839      0.00000
     36      11.4493      0.00000
     37      11.4826      0.00000
     38      11.5120      0.00000
     39      13.1272      0.00000
     40      13.1780      0.00000
     41      13.9064      0.00000
     42      14.1683      0.00000
     43      14.2449      0.00000
     44      14.2912      0.00000
     45      14.6830      0.00000
     46      14.7636      0.00000
     47      14.8287      0.00000
     48      14.9484      0.00000

 soft charge-density along one line, spin component           1
         0         1         2         3         4         5         6         7         8         9
 total charge-density along one line

------------------------ aborting loop because EDIFF is reached ----------------------------------------

  FORCE on cell =-STRESS in cart. coord.  units (eV):
  Direction    XX          YY          ZZ          XY          YZ          ZX
  Alpha Z    94.24358    94.24358    94.24358
  Ewald     -90.05465  -558.27634  -147.43815    -0.00000    -0.00000     0.00000
  Hartree   187.06367     5.83049   156.23436    -0.00000    -0.00000     0.00000
  E(xc)    -134.92732  -135.89957  -134.89048    -0.00000     0.00000    -0.00000
  Local    -493.87059   126.47703  -405.91615     0.00000    -0.00000    -0.00000
  n-local    -9.18168   -11.19310    -9.57259    -0.00642    -0.00649     0.05300
  augment     1.34617     1.39269     1.37429    -0.00000     0.00000     0.00000
  Kinetic   446.69817   477.52468   445.44181     0.24474     0.06391    -1.02015
  Fock        0.00000     0.00000     0.00000     0.00000     0.00000     0.00000
  Total       1.31734     0.09945    -0.52333     0.00000     0.00000    -0.00000
  in kB      14.75182     1.11370    -5.86042     0.00000     0.00000    -0.00000

 VOLUME and BASIS-vectors are now :
  energy-cutoff  :      860.00
  volume of cell :      143.07
      direct lattice vectors                 reciprocal lattice vectors
     5.697000000  0.000000000  0.000000000     0.175530981  0.000000000  0.000000000
     0.000000000  4.047900000  0.000000000     0.000000000  0.247041676  0.000000000
     0.000000000  0.000000000  6.204200000     0.000000000  0.000000000  0.161181135

  length of vectors
     5.697000000  4.047900000  6.204200000     0.175530981  0.247041676  0.161181135

 FORCES acting on ions
    electron-ion (+dipol)            ewald-force                    non-local-force                 convergence-correction
   0.497E+02 -.303E-12 -.250E+02   -.515E+02 0.211E-14 0.284E+02   0.181E+01 0.110E-18 -.331E+01   0.363E-04 -.284E-14 -.404E-04
   -.497E+02 -.331E-12 0.250E+02   0.515E+02 0.448E-16 -.284E+02   -.181E+01 -.120E-18 0.331E+01   -.363E-04 -.280E-14 0.404E-04
   -.497E+02 -.145E-11 -.250E+02   0.515E+02 0.587E-14 0.284E+02   -.181E+01 -.848E-19 -.331E+01   -.363E-04 -.837E-15 -.404E-04
   0.497E+02 0.639E-13 0.250E+02   -.515E+02 0.181E-14 -.284E+02   0.181E+01 0.889E-19 0.331E+01   0.363E-04 -.286E-14 0.404E-04
   0.313E+02 -.233E-12 -.527E+02   -.341E+02 0.342E-14 0.571E+02   0.194E+01 -.500E-19 -.408E+01   0.347E-05 -.332E-14 -.443E-04
   -.313E+02 -.299E-12 0.527E+02   0.341E+02 0.354E-14 -.571E+02   -.194E+01 0.195E-19 0.408E+01   -.347E-05 -.125E-14 0.443E-04
   -.313E+02 0.830E-12 -.527E+02   0.341E+02 0.299E-14 0.571E+02   -.194E+01 0.432E-19 -.408E+01   -.347E-05 -.259E-14 -.443E-04
   0.313E+02 0.145E-12 0.527E+02   -.341E+02 0.353E-14 -.571E+02   0.194E+01 -.283E-19 0.408E+01   0.347E-05 -.939E-15 0.443E-04
   -.187E-13 -.558E+02 -.155E+02   -.720E-14 0.613E+02 0.166E+02   0.386E-18 -.539E+01 -.113E+01   0.940E-14 -.177E-03 -.367E-04
   -.377E-13 0.558E+02 0.155E+02   0.108E-13 -.613E+02 -.166E+02   -.352E-18 0.539E+01 0.113E+01   0.369E-14 0.177E-03 0.367E-04
   -.189E-13 0.558E+02 -.155E+02   0.393E-14 -.613E+02 0.166E+02   -.632E-18 0.539E+01 -.113E+01   0.784E-14 0.177E-03 -.367E-04
   -.376E-13 -.558E+02 0.155E+02   0.643E-14 0.613E+02 -.166E+02   -.714E-18 -.539E+01 0.113E+01   0.395E-14 -.177E-03 0.367E-04
   -.156E-13 -.341E-12 -.623E+02   0.123E-13 0.532E-14 0.649E+02   0.194E-18 -.253E-18 -.254E+01   -.169E-13 -.276E-14 -.576E-04
   -.152E-13 -.236E-12 0.623E+02   0.173E-13 0.235E-14 -.649E+02   0.180E-18 0.232E-18 0.254E+01   0.136E-13 -.212E-14 0.576E-04
   -.717E-12 -.219E-11 -.496E-13   0.152E-13 0.767E-14 -.284E-13   -.223E-15 -.888E-15 -.178E-14   0.368E-13 -.201E-13 -.270E-13

 POSITION                                       TOTAL-FORCE (eV/Angst)
      2.96945      2.02395      3.95803        -0.009242      0.000000      0.056406
      2.72755      2.02395      2.24617         0.009242      0.000000     -0.056406
      5.57605      2.02395      3.95803         0.009242     -0.000000      0.056406
      0.12095      2.02395      2.24617        -0.009242     -0.000000     -0.056406
      3.42333      2.02395      5.58322        -0.827421      0.000000      0.282990
      2.27367      2.02395      0.62098         0.827421      0.000000     -0.282990
      5.12217      2.02395      5.58322         0.827421      0.000000      0.282990
      0.57483      2.02395      0.62098        -0.827421     -0.000000     -0.282990
      4.27275      3.20476      4.52739         0.000000      0.050502     -0.080356
      1.42425      0.84314      1.67681        -0.000000     -0.050502      0.080356
      4.27275      0.84314      4.52739        -0.000000     -0.050502     -0.080356
      1.42425      3.20476      1.67681         0.000000      0.050502      0.080356
      1.42425      2.02395      3.24895         0.000000      0.000000      0.070996
      4.27275      2.02395      2.95525        -0.000000     -0.000000     -0.070996
    total drift:                               -0.000000     -0.000000     -0.000000

  FREE ENERGIE OF THE ION-ELECTRON SYSTEM (eV)
  free  energy   TOTEN  =       -90.61424358 eV

  energy  without entropy=      -90.61059026  energy(sigma->0) =      -90.61241692