 vasp.6.4.3 19Mar24 (build May 31 2024 16:31:43) complex

 executed on             LinuxIFC date 2024.10.30  22:36:27

 INCAR:
   SYSTEM = Kpoints
   ISTART = 0
   ICHARG = 2
   PREC = Accurate
   ENCUT = 1160
   LCHARG = .FALSE.
   LWAVE = .FALSE.
   ALGO = Normal
   NELM = 100
   EDIFF = 1E-6
   EDIFFG = -1E-3
   SIGMA = 0.05
   ISMEAR = 0
   ISPIN = 1
   NSW = 0
   IBRION = -1
   POTIM = .5
   ISIF = 2
   GGA = PE

 POTCAR:    PAW_PBE B 06Sep2000
 POTCAR:    PAW_PBE B 06Sep2000
   VRHFIN =B: s2p1

   TITEL  = PAW_PBE B 06Sep2000
   POMASS =   10.811; ZVAL   =    3.000    mass and valenz
   ENMAX  =  318.614; ENMIN  =  238.960 eV

  PAW_PBE B 06Sep2000                   :

 POSCAR: o-B14
  positions in direct lattice

 exchange-correlation table for PE
   RHO(1)=    0.500       N(1)  =     2000
   RHO(2)=  100.500       N(2)  =     4000

 ion  position               nearest neighbor table
   1  0.521  0.500  0.638-  14 1.64   5 1.69  13 1.70   2 1.73   9 1.85  11 1.85
   2  0.479  0.500  0.362-  13 1.64   6 1.69  14 1.70   1 1.73  10 1.85  12 1.85
   3  0.979  0.500  0.638-  14 1.64   7 1.69  13 1.70   4 1.73   9 1.85  11 1.85
   4  0.021  0.500  0.362-  13 1.64   8 1.69  14 1.70   3 1.73  10 1.85  12 1.85
   5  0.601  0.500  0.900-   1 1.69   6 1.69   7 1.70   9 1.80  11 1.80
   6  0.399  0.500  0.100-   2 1.69   5 1.69   8 1.70  10 1.80  12 1.80
   7  0.899  0.500  0.900-   3 1.69   8 1.69   5 1.70   9 1.80  11 1.80
   8  0.101  0.500  0.100-   4 1.69   7 1.69   6 1.70  10 1.80  12 1.80
   9  0.750  0.792  0.730-  11 1.69   7 1.80   5 1.80   3 1.85   1 1.85  14 1.97
  10  0.250  0.208  0.270-  12 1.69   8 1.80   6 1.80   4 1.85   2 1.85  13 1.97
  11  0.750  0.208  0.730-   9 1.69   7 1.80   5 1.80   3 1.85   1 1.85  14 1.97
  12  0.250  0.792  0.270-  10 1.69   8 1.80   6 1.80   4 1.85   2 1.85  13 1.97
  13  0.250  0.500  0.524-   2 1.64   4 1.64   3 1.70   1 1.70  10 1.97  12 1.97
  14  0.750  0.500  0.476-   1 1.64   3 1.64   2 1.70   4 1.70   9 1.97  11 1.97

  LATTYP: Found a simple orthorhombic cell.
 ALAT       =     4.0479000000
 B/A-ratio  =     1.4073964278
 C/A-ratio  =     1.5326959658

  Lattice vectors:

 A1 = (   0.0000000000,  -4.0479000000,   0.0000000000)
 A2 = (   5.6970000000,   0.0000000000,   0.0000000000)
 A3 = (   0.0000000000,   0.0000000000,   6.2042000000)

Analysis of symmetry for initial positions (statically):
 Subroutine PRICEL returns:
 Original cell was already a primitive cell.

 Routine SETGRP: Setting up the symmetry group for a
 simple orthorhombic supercell.

 Subroutine GETGRP returns: Found  8 space group operations
 (whereof  4 operations were pure point group operations)
 out of a pool of  8 trial point group operations.

The static configuration has the point symmetry C_2h.
 The point group associated with its full space group is D_2h.

Analysis of symmetry for dynamics (positions and initial velocities):
 Subroutine PRICEL returns:
 Original cell was already a primitive cell.

 Routine SETGRP: Setting up the symmetry group for a
 simple orthorhombic supercell.

 Subroutine GETGRP returns: Found  8 space group operations
 (whereof  4 operations were pure point group operations)
 out of a pool of  8 trial point group operations.

The dynamic configuration has the point symmetry C_2h.
 The point group associated with its full space group is D_2h.

 Subroutine INISYM returns: Found  8 space group operations
 (whereof  4 operations are pure point group operations),
 and found     1 'primitive' translations

                                     Primitive cell

  volume of cell :     143.0744

  direct lattice vectors                    reciprocal lattice vectors
     5.697000000  0.000000000  0.000000000     0.175530981  0.000000000  0.000000000
     0.000000000  4.047900000  0.000000000     0.000000000  0.247041676  0.000000000
     0.000000000  0.000000000  6.204200000     0.000000000  0.000000000  0.161181135

  length of vectors
     5.697000000  4.047900000  6.204200000     0.175530981  0.247041676  0.161181135

  position of ions in fractional coordinates (direct lattice)
     0.521230000  0.500000000  0.637960000
     0.478770000  0.500000000  0.362040000
     0.978770000  0.500000000  0.637960000
     0.021230000  0.500000000  0.362040000
     0.600900000  0.500000000  0.899910000
     0.399100000  0.500000000  0.100090000
     0.899100000  0.500000000  0.899910000
     0.100900000  0.500000000  0.100090000
     0.750000000  0.791710000  0.729730000
     0.250000000  0.208290000  0.270270000
     0.750000000  0.208290000  0.729730000
     0.250000000  0.791710000  0.270270000
     0.250000000  0.500000000  0.523670000
     0.750000000  0.500000000  0.476330000

  ion indices of the primitive-cell ions
   primitive index   ion index
                 1           1
                 2           2
                 3           3
                 4           4
                 5           5
                 6           6
                 7           7
                 8           8
                 9           9
                10          10
                11          11
                12          12
                13          13
                14          14

 KPOINTS: k-points

Automatic generation of k-mesh.
 Grid dimensions read from file:
 generate k-points for:   10   14    9

 Generating k-lattice:

  Cartesian coordinates                     Fractional coordinates (reciprocal lattice)
     0.017553098  0.000000000  0.000000000     0.100000000  0.000000000  0.000000000
     0.000000000  0.017645834  0.000000000     0.000000000  0.071428571  0.000000000
     0.000000000  0.000000000  0.017909015     0.000000000  0.000000000  0.111111111

  Length of vectors
     0.017553098  0.017645834  0.017909015

  Shift w.r.t. Gamma in fractional coordinates (k-lattice)
     0.500000000  0.500000000  0.000000000

 Subroutine IBZKPT returns following result:

 Found    175 irreducible k-points:

 Following reciprocal coordinates:
            Coordinates               Weight
  0.050000  0.035714  0.000000      4.000000
  0.150000  0.035714  0.000000      4.000000
  0.250000  0.035714  0.000000      4.000000
  0.350000  0.035714  0.000000      4.000000
  0.450000  0.035714  0.000000      4.000000
  0.050000  0.107143  0.000000      4.000000
  0.150000  0.107143  0.000000      4.000000
  0.250000  0.107143  0.000000      4.000000
  0.350000  0.107143  0.000000      4.000000
  0.450000  0.107143  0.000000      4.000000
  0.050000  0.178571  0.000000      4.000000
  0.150000  0.178571  0.000000      4.000000
  0.250000  0.178571  0.000000      4.000000
  0.350000  0.178571  0.000000      4.000000
  0.450000  0.178571  0.000000      4.000000
  0.050000  0.250000  0.000000      4.000000
  0.150000  0.250000  0.000000      4.000000
  0.250000  0.250000  0.000000      4.000000
  0.350000  0.250000  0.000000      4.000000
  0.450000  0.250000  0.000000      4.000000
  0.050000  0.321429  0.000000      4.000000
  0.150000  0.321429  0.000000      4.000000
  0.250000  0.321429  0.000000      4.000000
  0.350000  0.321429  0.000000      4.000000
  0.450000  0.321429  0.000000      4.000000
  0.050000  0.392857  0.000000      4.000000
  0.150000  0.392857  0.000000      4.000000
  0.250000  0.392857  0.000000      4.000000
  0.350000  0.392857  0.000000      4.000000
  0.450000  0.392857  0.000000      4.000000
  0.050000  0.464286  0.000000      4.000000
  0.150000  0.464286  0.000000      4.000000
  0.250000  0.464286  0.000000      4.000000
  0.350000  0.464286  0.000000      4.000000
  0.450000  0.464286  0.000000      4.000000
  0.050000  0.035714  0.111111      8.000000
  0.150000  0.035714  0.111111      8.000000
  0.250000  0.035714  0.111111      8.000000
  0.350000  0.035714  0.111111      8.000000
  0.450000  0.035714  0.111111      8.000000
  0.050000  0.107143  0.111111      8.000000
  0.150000  0.107143  0.111111      8.000000
  0.250000  0.107143  0.111111      8.000000
  0.350000  0.107143  0.111111      8.000000
  0.450000  0.107143  0.111111      8.000000
  0.050000  0.178571  0.111111      8.000000
  0.150000  0.178571  0.111111      8.000000
  0.250000  0.178571  0.111111      8.000000
  0.350000  0.178571  0.111111      8.000000
  0.450000  0.178571  0.111111      8.000000
  0.050000  0.250000  0.111111      8.000000
  0.150000  0.250000  0.111111      8.000000
  0.250000  0.250000  0.111111      8.000000
  0.350000  0.250000  0.111111      8.000000
  0.450000  0.250000  0.111111      8.000000
  0.050000  0.321429  0.111111      8.000000
  0.150000  0.321429  0.111111      8.000000
  0.250000  0.321429  0.111111      8.000000
  0.350000  0.321429  0.111111      8.000000
  0.450000  0.321429  0.111111      8.000000
[...]
  0.050000  0.321429  0.444444      8.000000
  0.150000  0.321429  0.444444      8.000000
  0.250000  0.321429  0.444444      8.000000
  0.350000  0.321429  0.444444      8.000000
  0.450000  0.321429  0.444444      8.000000
  0.050000  0.392857  0.444444      8.000000
  0.150000  0.392857  0.444444      8.000000
  0.250000  0.392857  0.444444      8.000000
  0.350000  0.392857  0.444444      8.000000
  0.450000  0.392857  0.444444      8.000000
  0.050000  0.464286  0.444444      8.000000
  0.150000  0.464286  0.444444      8.000000
  0.250000  0.464286  0.444444      8.000000
  0.350000  0.464286  0.444444      8.000000
  0.450000  0.464286  0.444444      8.000000

 Following cartesian coordinates:
            Coordinates               Weight
  0.008777  0.008823  0.000000      4.000000
  0.026330  0.008823  0.000000      4.000000
  0.043883  0.008823  0.000000      4.000000
  0.061436  0.008823  0.000000      4.000000
  0.078989  0.008823  0.000000      4.000000
  0.008777  0.026469  0.000000      4.000000
  0.026330  0.026469  0.000000      4.000000
  0.043883  0.026469  0.000000      4.000000
  0.061436  0.026469  0.000000      4.000000
  0.078989  0.026469  0.000000      4.000000
  0.008777  0.044115  0.000000      4.000000
  0.026330  0.044115  0.000000      4.000000
  0.043883  0.044115  0.000000      4.000000
  0.061436  0.044115  0.000000      4.000000
  0.078989  0.044115  0.000000      4.000000
  0.008777  0.061760  0.000000      4.000000
  0.026330  0.061760  0.000000      4.000000
  0.043883  0.061760  0.000000      4.000000
  0.061436  0.061760  0.000000      4.000000
  0.078989  0.061760  0.000000      4.000000
  0.008777  0.079406  0.000000      4.000000
  0.026330  0.079406  0.000000      4.000000
  0.043883  0.079406  0.000000      4.000000
  0.061436  0.079406  0.000000      4.000000
  0.078989  0.079406  0.000000      4.000000
  0.008777  0.097052  0.000000      4.000000
  0.026330  0.097052  0.000000      4.000000
  0.043883  0.097052  0.000000      4.000000
  0.061436  0.097052  0.000000      4.000000
  0.078989  0.097052  0.000000      4.000000
  0.008777  0.114698  0.000000      4.000000
  0.026330  0.114698  0.000000      4.000000
  0.043883  0.114698  0.000000      4.000000
  0.061436  0.114698  0.000000      4.000000
  0.078989  0.114698  0.000000      4.000000
  0.008777  0.008823  0.017909      8.000000
  0.026330  0.008823  0.017909      8.000000
  0.043883  0.008823  0.017909      8.000000
[...]
 k-point    23 :   0.2500 0.3214 0.0000  plane waves:   12835
 k-point    24 :   0.3500 0.3214 0.0000  plane waves:   12843
 k-point    25 :   0.4500 0.3214 0.0000  plane waves:   12839
 k-point    26 :   0.0500 0.3929 0.0000  plane waves:   12827
 k-point    27 :   0.1500 0.3929 0.0000  plane waves:   12828
 k-point    28 :   0.2500 0.3929 0.0000  plane waves:   12828
 k-point    29 :   0.3500 0.3929 0.0000  plane waves:   12834
 k-point    30 :   0.4500 0.3929 0.0000  plane waves:   12832
 k-point    31 :   0.0500 0.4643 0.0000  plane waves:   12847
 k-point    32 :   0.1500 0.4643 0.0000  plane waves:   12844
 k-point    33 :   0.2500 0.4643 0.0000  plane waves:   12838
 k-point    34 :   0.3500 0.4643 0.0000  plane waves:   12840
 k-point    35 :   0.4500 0.4643 0.0000  plane waves:   12814
 k-point    36 :   0.0500 0.0357 0.1111  plane waves:   12858
 k-point    37 :   0.1500 0.0357 0.1111  plane waves:   12843
 k-point    38 :   0.2500 0.0357 0.1111  plane waves:   12848
 k-point    39 :   0.3500 0.0357 0.1111  plane waves:   12843
 k-point    40 :   0.4500 0.0357 0.1111  plane waves:   12836
 k-point    41 :   0.0500 0.1071 0.1111  plane waves:   12844
 k-point    42 :   0.1500 0.1071 0.1111  plane waves:   12844
 k-point    43 :   0.2500 0.1071 0.1111  plane waves:   12847
 k-point    44 :   0.3500 0.1071 0.1111  plane waves:   12847
 k-point    45 :   0.4500 0.1071 0.1111  plane waves:   12843
 k-point    46 :   0.0500 0.1786 0.1111  plane waves:   12835
 k-point    47 :   0.1500 0.1786 0.1111  plane waves:   12842
 k-point    48 :   0.2500 0.1786 0.1111  plane waves:   12834
 k-point    49 :   0.3500 0.1786 0.1111  plane waves:   12846
 k-point    50 :   0.4500 0.1786 0.1111  plane waves:   12839
 k-point    51 :   0.0500 0.2500 0.1111  plane waves:   12822
 k-point    52 :   0.1500 0.2500 0.1111  plane waves:   12816
 k-point    53 :   0.2500 0.2500 0.1111  plane waves:   12831
 k-point    54 :   0.3500 0.2500 0.1111  plane waves:   12834
 k-point    55 :   0.4500 0.2500 0.1111  plane waves:   12835
 k-point    56 :   0.0500 0.3214 0.1111  plane waves:   12819
 k-point    57 :   0.1500 0.3214 0.1111  plane waves:   12821
 k-point    58 :   0.2500 0.3214 0.1111  plane waves:   12829
 k-point    59 :   0.3500 0.3214 0.1111  plane waves:   12830
 k-point    60 :   0.4500 0.3214 0.1111  plane waves:   12839
[...]
 k-point   161 :   0.0500 0.3214 0.4444  plane waves:   12826
 k-point   162 :   0.1500 0.3214 0.4444  plane waves:   12824
 k-point   163 :   0.2500 0.3214 0.4444  plane waves:   12845
 k-point   164 :   0.3500 0.3214 0.4444  plane waves:   12854
 k-point   165 :   0.4500 0.3214 0.4444  plane waves:   12871
 k-point   166 :   0.0500 0.3929 0.4444  plane waves:   12833
 k-point   167 :   0.1500 0.3929 0.4444  plane waves:   12822
 k-point   168 :   0.2500 0.3929 0.4444  plane waves:   12837
 k-point   169 :   0.3500 0.3929 0.4444  plane waves:   12853
 k-point   170 :   0.4500 0.3929 0.4444  plane waves:   12868
 k-point   171 :   0.0500 0.4643 0.4444  plane waves:   12800
 k-point   172 :   0.1500 0.4643 0.4444  plane waves:   12822
 k-point   173 :   0.2500 0.4643 0.4444  plane waves:   12852
 k-point   174 :   0.3500 0.4643 0.4444  plane waves:   12868
 k-point   175 :   0.4500 0.4643 0.4444  plane waves:   12882

 maximum and minimum number of plane-waves per node :     12882    12800

 maximum number of plane-waves:     12882
 maximum index in each direction:
   IXMAX=   15   IYMAX=   11   IZMAX=   17
   IXMIN=  -16   IYMIN=  -11   IZMIN=  -17

 serial   3D FFT for wavefunctions
 parallel 3D FFT for charge:
    minimum data exchange during FFTs selected (reduces bandwidth)

 Broyden mixing: mesh for mixing (old mesh)
   NGX = 31   NGY = 23   NGZ = 35
  (NGX  =128   NGY  = 96   NGZ  =140)
  gives a total of  24955 points

 initial charge density was supplied:
 charge density of overlapping atoms calculated
 number of electron      42.0000000 magnetization
 keeping initial charge density in first step

 Maximum index for augmentation-charges         1863 (set IRDMAX)

 First call to EWALD:  gamma=   0.339
 Maximum number of real-space cells 3x 3x 2
 Maximum number of reciprocal cells 3x 2x 3

--------------------------------------- Ionic step        1  -------------------------------------------

--------------------------------------- Iteration      1(   1)  ---------------------------------------

 eigenvalue-minimisations  : 16800
 total energy-change (2. order) : 0.1715493E+03  (-0.2880052E+04)
 number of electron      42.0000000 magnetization
 augmentation part       42.0000000 magnetization

 Free energy of the ion-electron system (eV)
  alpha Z        PSCENC =        94.24357992
  Ewald energy   TEWEN  =      -795.76658092
  -Hartree energ DENC   =      -271.33601302
  -exchange      EXHF   =         0.00000000
  -V(xc)+E(xc)   XCENC  =        97.50108125
  PAW double counting   =       608.99811708     -597.02363782
  entropy T*S    EENTRO =        -0.00213161
  eigenvalues    EBANDS =        38.55205475
  atomic energy  EATOM  =       996.38283970
  Solvation  Ediel_sol  =         0.00000000
  free energy    TOTEN  =       171.54930933 eV

  energy without entropy =      171.55144093  energy(sigma->0) =      171.55037513

[...]

 eigenvalue-minimisations  : 21768
 total energy-change (2. order) :-0.2586174E+03  (-0.2383995E+03)
 number of electron      42.0000000 magnetization
 augmentation part       42.0000000 magnetization

[...]

 Broyden mixing:
  rms(total) = 0.12335E+01    rms(broyden)= 0.12335E+01
  rms(prec ) = 0.22677E+01
  weight for this iteration     100.00

[...]

 eigenvalues of (default mixing * dielectric matrix)
  average eigenvalue GAMMA=   2.0768
  2.0768

[...]

 eigenvalue-minimisations  : 25176
 total energy-change (2. order) : 0.1651690E+01  (-0.3220201E+00)
 number of electron      42.0000000 magnetization
 augmentation part       -0.1729811 magnetization

[...]

 Broyden mixing:
  rms(total) = 0.18140E-03    rms(broyden)= 0.18140E-03
  rms(prec ) = 0.25938E-03
  weight for this iteration     100.00

 eigenvalues of (default mixing * dielectric matrix)
  average eigenvalue GAMMA=   1.7992
  3.3014  2.4983  2.1015  1.8959  1.5101  1.0961  0.9952  0.9952

[...]

--------------------------------------- Iteration      1(  14)  ---------------------------------------

 eigenvalue-minimisations  : 20424
 total energy-change (2. order) :-0.6929270E-06  (-0.2940348E-07)
 number of electron      42.0000000 magnetization
 augmentation part       -0.1777503 magnetization

 Free energy of the ion-electron system (eV)
  alpha Z        PSCENC =        94.24357992
  Ewald energy   TEWEN  =      -795.76658092
  -Hartree energ DENC   =      -349.12408767
  -exchange      EXHF   =         0.00000000
  -V(xc)+E(xc)   XCENC  =       101.59827081
  PAW double counting   =      3726.12087870    -3715.30628045
  entropy T*S    EENTRO =        -0.00321358
  eigenvalues    EBANDS =      -148.76858934
  atomic energy  EATOM  =       996.38283970
  Solvation  Ediel_sol  =         0.00000000
  free energy    TOTEN  =       -90.62318284 eV

  energy without entropy =      -90.61996925  energy(sigma->0) =      -90.62157604

 average (electrostatic) potential at core
  the test charge radii are     0.7672
  (the norm of the test charge is              1.0000)
       1 -29.9791       2 -29.9791       3 -29.9791       4 -29.9791       5 -28.9382
       6 -28.9382       7 -28.9382       8 -28.9382       9 -29.3465      10 -29.3465
      11 -29.3465      12 -29.3465      13 -29.9184      14 -29.9184

 E-fermi :   1.8835     XC(G=0):  -9.4405     alpha+bet :-10.8605

 val. band max:        1.8788910699   @ k =   0.1500   0.1071   0.1111
 cond. band min:       1.8897277836   @ k =   0.2500   0.1071   0.0000
 fundamental gap:      0.0108367137
 Fermi energy:         1.8834519852

 k-point     1 :       0.0500    0.0357    0.0000
  band No.  band energies     occupation
      1     -12.7248      2.00000
      2     -11.5829      2.00000
      3      -8.6581      2.00000
      4      -8.4213      2.00000
      5      -6.0639      2.00000
      6      -5.1302      2.00000
      7      -4.6659      2.00000
      8      -4.2751      2.00000
      9      -4.0331      2.00000
     10      -3.5440      2.00000
     11      -2.5938      2.00000
     12      -2.3247      2.00000
     13      -1.8337      2.00000
     14      -1.0962      2.00000
     15      -0.0701      2.00000
     16      -0.0399      2.00000
     17       0.1559      2.00000
     18       0.1775      2.00000
     19       0.5653      2.00000
     20       2.0184      0.00014
     21       2.0814      0.00000
     22       2.2166      0.00000
     23       5.4573      0.00000
     24       5.7484      0.00000
     25       5.8375      0.00000
     26       5.9586      0.00000
     27       6.8137      0.00000
     28       7.5478      0.00000
     29       7.8770      0.00000
     30       8.5347      0.00000
     31       8.8013      0.00000
     32       8.9488      0.00000
     33       9.0510      0.00000
     34      10.1227      0.00000
     35      11.1835      0.00000
     36      11.3335      0.00000
     37      11.6637      0.00000
     38      11.7806      0.00000
     39      11.9400      0.00000
     40      12.4025      0.00000
     41      12.8674      0.00000
     42      13.4511      0.00000
     43      13.4782      0.00000
     44      15.3802      0.00000
     45      15.5698      0.00000
     46      16.0603      0.00000
     47      16.3317      0.00000
     48      16.3546      0.00000

[...]

 k-point   175 :       0.4500    0.4643    0.4444
  band No.  band energies     occupation
      1     -12.0208      2.00000
      2     -11.8817      2.00000
      3      -8.5473      2.00000
      4      -8.4350      2.00000
      5      -5.9268      2.00000
      6      -5.8206      2.00000
      7      -4.8924      2.00000
      8      -4.5689      2.00000
      9      -4.4142      2.00000
     10      -3.9760      2.00000
     11      -2.1998      2.00000
     12      -2.1382      2.00000
     13      -2.0585      2.00000
     14      -1.7742      2.00000
     15      -0.2205      2.00000
     16      -0.0070      2.00000
     17       0.3872      2.00000
     18       0.4751      2.00000
     19       0.5469      2.00000
     20       0.8731      2.00000
     21       1.6290      2.00000
     22       1.7286      1.99999
     23       5.8576      0.00000
     24       6.0431      0.00000
     25       6.8679      0.00000
     26       7.4046      0.00000
     27       7.4718      0.00000
     28       7.5744      0.00000
     29       9.3942      0.00000
     30       9.5780      0.00000
     31       9.7868      0.00000
     32       9.9643      0.00000
     33      10.4609      0.00000
     34      10.8108      0.00000
     35      11.2335      0.00000
     36      11.5065      0.00000
     37      11.5167      0.00000
     38      11.6099      0.00000
     39      13.0794      0.00000
     40      13.1854      0.00000
     41      13.7184      0.00000
     42      14.0510      0.00000
     43      14.1852      0.00000
     44      14.2880      0.00000
     45      14.5900      0.00000
     46      14.7342      0.00000
     47      14.8826      0.00000
     48      15.0436      0.00000

 soft charge-density along one line, spin component           1
         0         1         2         3         4         5         6         7         8         9
 total charge-density along one line

------------------------ aborting loop because EDIFF is reached ----------------------------------------

  FORCE on cell =-STRESS in cart. coord.  units (eV):
  Direction    XX          YY          ZZ          XY          YZ          ZX
  Alpha Z    94.24358    94.24358    94.24358
  Ewald     -90.05465  -558.27634  -147.43815    -0.00000    -0.00000     0.00000
  Hartree   187.02014     5.91745   156.18642     0.00000    -0.00000    -0.00000
  E(xc)    -134.92690  -135.90020  -134.88927     0.00000    -0.00000     0.00000
  Local    -493.80325   126.28562  -405.81655     0.00000     0.00000    -0.00000
  n-local    -9.18856   -11.22784    -9.56004    -0.01113    -0.00729     0.07763
  augment     1.34746     1.39306     1.37593     0.00000     0.00000     0.00000
  Kinetic   446.67333   477.68648   445.32030     0.27588     0.07134    -1.17746
  Fock        0.00000     0.00000     0.00000     0.00000     0.00000     0.00000
  Total       1.31115     0.12180    -0.57779     0.00000     0.00000     0.00000
  in kB      14.68258     1.36394    -6.47017     0.00000     0.00000     0.00000

 VOLUME and BASIS-vectors are now :
  energy-cutoff  :     1160.00
  volume of cell :      143.07
      direct lattice vectors                 reciprocal lattice vectors
     5.697000000  0.000000000  0.000000000     0.175530981  0.000000000  0.000000000
     0.000000000  4.047900000  0.000000000     0.000000000  0.247041676  0.000000000
     0.000000000  0.000000000  6.204200000     0.000000000  0.000000000  0.161181135

  length of vectors
     5.697000000  4.047900000  6.204200000     0.175530981  0.247041676  0.161181135

 FORCES acting on ions
    electron-ion (+dipol)            ewald-force                    non-local-force                 convergence-correction
   0.497E+02 0.836E-12 -.250E+02   -.515E+02 0.211E-14 0.284E+02   0.181E+01 0.155E-18 -.332E+01   -.408E-04 0.225E-14 0.516E-04
   -.497E+02 -.405E-12 0.250E+02   0.515E+02 0.448E-16 -.284E+02   -.181E+01 0.111E-18 0.332E+01   0.408E-04 0.170E-14 -.516E-04
   -.497E+02 -.146E-11 -.250E+02   0.515E+02 0.587E-14 0.284E+02   -.181E+01 -.254E-18 -.332E+01   0.408E-04 0.161E-14 0.516E-04
   0.497E+02 0.178E-13 0.250E+02   -.515E+02 0.181E-14 -.284E+02   0.181E+01 -.262E-18 0.332E+01   -.408E-04 0.193E-14 -.516E-04
   0.313E+02 -.342E-12 -.527E+02   -.341E+02 0.342E-14 0.571E+02   0.193E+01 0.373E-20 -.409E+01   -.790E-04 0.589E-15 -.982E-04
   -.313E+02 0.844E-12 0.527E+02   0.341E+02 0.354E-14 -.571E+02   -.193E+01 0.220E-19 0.409E+01   0.790E-04 0.294E-14 0.982E-04
   -.313E+02 -.149E-11 -.527E+02   0.341E+02 0.299E-14 0.571E+02   -.193E+01 -.254E-20 -.409E+01   0.790E-04 0.797E-15 -.982E-04
   0.313E+02 0.183E-13 0.527E+02   -.341E+02 0.353E-14 -.571E+02   0.193E+01 -.778E-20 0.409E+01   -.790E-04 0.258E-14 0.982E-04
   -.163E-13 -.558E+02 -.155E+02   -.720E-14 0.613E+02 0.166E+02   0.335E-18 -.540E+01 -.113E+01   -.180E-14 0.315E-04 0.116E-04
   -.379E-13 0.558E+02 0.155E+02   0.108E-13 -.613E+02 -.166E+02   0.267E-18 0.540E+01 0.113E+01   0.949E-15 -.315E-04 -.116E-04
   -.165E-13 0.558E+02 -.155E+02   0.393E-14 -.613E+02 0.166E+02   -.725E-18 0.540E+01 -.113E+01   -.151E-14 -.315E-04 0.116E-04
   -.373E-13 -.558E+02 0.155E+02   0.643E-14 0.613E+02 -.166E+02   -.125E-18 -.540E+01 0.113E+01   0.784E-15 0.315E-04 -.116E-04
   -.306E-13 0.352E-12 -.623E+02   0.123E-13 0.532E-14 0.649E+02   -.146E-18 -.351E-20 -.253E+01   0.803E-14 0.171E-14 0.194E-04
   -.591E-14 0.252E-12 0.623E+02   0.173E-13 0.235E-14 -.649E+02   -.370E-18 -.200E-19 0.253E+01   -.674E-14 0.197E-14 -.194E-04
   0.417E-13 -.132E-11 -.137E-11   0.152E-13 0.767E-14 -.284E-13   0.221E-15 -.235E-19 -.444E-15   -.358E-14 0.163E-13 0.157E-13

 POSITION                                       TOTAL-FORCE (eV/Angst)
      2.96945      2.02395      3.95803        -0.001956      0.000000      0.051192
      2.72755      2.02395      2.24617         0.001956      0.000000     -0.051192
      5.57605      2.02395      3.95803         0.001956      0.000000      0.051192
      0.12095      2.02395      2.24617        -0.001956      0.000000     -0.051192
      3.42333      2.02395      5.58322        -0.831634      0.000000      0.276003
      2.27367      2.02395      0.62098         0.831634      0.000000     -0.276003
      5.12217      2.02395      5.58322         0.831634      0.000000      0.276003
      0.57483      2.02395      0.62098        -0.831634      0.000000     -0.276003
      4.27275      3.20476      4.52739        -0.000000      0.059085     -0.079013
      1.42425      0.84314      1.67681        -0.000000     -0.059085      0.079013
      4.27275      0.84314      4.52739        -0.000000     -0.059085     -0.079013
      1.42425      3.20476      1.67681        -0.000000      0.059085      0.079013
      1.42425      2.02395      3.24895         0.000000      0.000000      0.068828
      4.27275      2.02395      2.95525        -0.000000      0.000000     -0.068828
    total drift:                                0.000000     -0.000000     -0.000000

  FREE ENERGIE OF THE ION-ELECTRON SYSTEM (eV)
  free  energy   TOTEN  =       -90.62318284 eV

  energy  without entropy=      -90.61996925  energy(sigma->0) =      -90.62157604