 vasp.6.4.3 19Mar24 (build May 31 2024 16:31:43) complex

 executed on             LinuxIFC date 2025.01.08  15:40:26

 INCAR:
   SYSTEM = SC
   ISTART = 0
   ICHARG = 2
   PREC = Accurate
   ENCUT = 600
   LCHARG = .TRUE.
   LWAVE = .TRUE.
   ALGO = Normal
   NELM = 64
   EDIFF = 1E-6
   EDIFFG = -1E-3
   SIGMA = 0.1
   ISMEAR = 0
   SYMPREC = 1E-6
   IBRION = -1
   GGA = PE
   IVDW = 12

 POTCAR:    PAW_PBE B 06Sep2000
 POTCAR:    PAW_PBE B 06Sep2000
   VRHFIN =B: s2p1

   TITEL  = PAW_PBE B 06Sep2000
   POMASS =   10.811; ZVAL   =    3.000    mass and valenz
   ENMAX  =  318.614; ENMIN  =  238.960 eV

  PAW_PBE B 06Sep2000                   :

 POSCAR: o-B14
  positions in direct lattice
 IVDW         = 12
 VDW_S6       =    1.0000
 VDW_S8       =    0.7875
 VDW_A1       =    0.4289
 VDW_A2       =    4.4407
 VDW_RADIUS   =   50.2022 A
 VDW_CNRADIUS =   21.1671 A

 exchange-correlation table for PE
   RHO(1)=    0.500       N(1)  =     2000
   RHO(2)=  100.500       N(2)  =     4000

 ion  position               nearest neighbor table
   1  0.521  0.500  0.638-  14 1.65   5 1.68  13 1.70   2 1.73   9 1.85  11 1.85
   2  0.479  0.500  0.362-  13 1.65   6 1.68  14 1.70   1 1.73  10 1.85  12 1.85
   3  0.979  0.500  0.638-  14 1.65   7 1.68  13 1.70   4 1.73   9 1.85  11 1.85
   4  0.021  0.500  0.362-  13 1.65   8 1.68  14 1.70   3 1.73  10 1.85  12 1.85
   5  0.597  0.500  0.900-   6 1.67   1 1.68   7 1.74   9 1.81  11 1.81
   6  0.403  0.500  0.100-   5 1.67   2 1.68   8 1.74  10 1.81  12 1.81
   7  0.903  0.500  0.900-   8 1.67   3 1.68   5 1.74   9 1.81  11 1.81
   8  0.097  0.500  0.100-   7 1.67   4 1.68   6 1.74  10 1.81  12 1.81
   9  0.750  0.792  0.730-  11 1.69   7 1.81   5 1.81   3 1.85   1 1.85  14 1.97
  10  0.250  0.208  0.270-  12 1.69   8 1.81   6 1.81   4 1.85   2 1.85  13 1.97
  11  0.750  0.208  0.730-   9 1.69   7 1.81   5 1.81   3 1.85   1 1.85  14 1.97
  12  0.250  0.792  0.270-  10 1.69   8 1.81   6 1.81   4 1.85   2 1.85  13 1.97
  13  0.250  0.500  0.524-   2 1.65   4 1.65   3 1.70   1 1.70  10 1.97  12 1.97
  14  0.750  0.500  0.476-   1 1.65   3 1.65   2 1.70   4 1.70   9 1.97  11 1.97

  LATTYP: Found a simple orthorhombic cell.
 ALAT       =     4.0440580961
 B/A-ratio  =     1.4097153303
 C/A-ratio  =     1.5335761871

  Lattice vectors:

 A1 = (   0.0000000000,  -4.0440580961,   0.0000000000)
 A2 = (   5.7009706948,   0.0000000000,   0.0000000000)
 A3 = (   0.0000000000,   0.0000000000,   6.2018711955)

Analysis of symmetry for initial positions (statically):
 Subroutine PRICEL returns:
 Original cell was already a primitive cell.

 Routine SETGRP: Setting up the symmetry group for a
 simple orthorhombic supercell.

 Subroutine GETGRP returns: Found  8 space group operations
 (whereof  4 operations were pure point group operations)
 out of a pool of  8 trial point group operations.

The static configuration has the point symmetry C_2h.
 The point group associated with its full space group is D_2h.

Analysis of symmetry for dynamics (positions and initial velocities):
 Subroutine PRICEL returns:
 Original cell was already a primitive cell.

 Routine SETGRP: Setting up the symmetry group for a
 simple orthorhombic supercell.

 Subroutine GETGRP returns: Found  8 space group operations
 (whereof  4 operations were pure point group operations)
 out of a pool of  8 trial point group operations.

The dynamic configuration has the point symmetry C_2h.
 The point group associated with its full space group is D_2h.

 Subroutine INISYM returns: Found  8 space group operations
 (whereof  4 operations are pure point group operations),
 and found     1 'primitive' translations

                                     Primitive cell

  volume of cell :     142.9845

  direct lattice vectors                    reciprocal lattice vectors
     5.700970695  0.000000000  0.000000000     0.175408725  0.000000000  0.000000000
     0.000000000  4.044058096  0.000000000     0.000000000  0.247276368  0.000000000
     0.000000000  0.000000000  6.201871195     0.000000000  0.000000000  0.161241659

  length of vectors
     5.700970695  4.044058096  6.201871195     0.175408725  0.247276368  0.161241659

  position of ions in fractional coordinates (direct lattice)
     0.521289885  0.500000000  0.637957702
     0.478710115  0.500000000  0.362042298
     0.978710115  0.500000000  0.637957702
     0.021289885  0.500000000  0.362042298
     0.597449662  0.500000000  0.899868316
     0.402550338  0.500000000  0.100131684
     0.902550338  0.500000000  0.899868316
     0.097449662  0.500000000  0.100131684
     0.750000000  0.791564932  0.729579396
     0.250000000  0.208435068  0.270420604
     0.750000000  0.208435068  0.729579396
     0.250000000  0.791564932  0.270420604
     0.250000000  0.500000000  0.523993035
     0.750000000  0.500000000  0.476006965

  ion indices of the primitive-cell ions
   primitive index   ion index
                 1           1
                 2           2
                 3           3
                 4           4
                 5           5
                 6           6
                 7           7
                 8           8
                 9           9
                10          10
                11          11
                12          12
                13          13
                14          14

 KPOINTS: k-points

Automatic generation of k-mesh.
 Grid dimensions read from file:
 generate k-points for:   20   28   18

 Generating k-lattice:

  Cartesian coordinates                     Fractional coordinates (reciprocal lattice)
     0.008770436  0.000000000  0.000000000     0.050000000  0.000000000  0.000000000
     0.000000000  0.008831299  0.000000000     0.000000000  0.035714286  0.000000000
     0.000000000  0.000000000  0.008957870     0.000000000  0.000000000  0.055555556

  Length of vectors
     0.008770436  0.008831299  0.008957870

  Shift w.r.t. Gamma in fractional coordinates (k-lattice)
     0.500000000  0.500000000  0.500000000

 Subroutine IBZKPT returns following result:

 Found   1260 irreducible k-points:

 Following reciprocal coordinates:
            Coordinates               Weight
  0.025000  0.017857  0.027778      8.000000
  0.075000  0.017857  0.027778      8.000000
  0.125000  0.017857  0.027778      8.000000
  0.175000  0.017857  0.027778      8.000000
  0.225000  0.017857  0.027778      8.000000
  0.275000  0.017857  0.027778      8.000000
  0.325000  0.017857  0.027778      8.000000
  0.375000  0.017857  0.027778      8.000000
  0.425000  0.017857  0.027778      8.000000
  0.475000  0.017857  0.027778      8.000000
  0.025000  0.053571  0.027778      8.000000
  0.075000  0.053571  0.027778      8.000000
  0.125000  0.053571  0.027778      8.000000
  0.175000  0.053571  0.027778      8.000000
  0.225000  0.053571  0.027778      8.000000
  0.275000  0.053571  0.027778      8.000000
  0.325000  0.053571  0.027778      8.000000
  0.375000  0.053571  0.027778      8.000000
  0.425000  0.053571  0.027778      8.000000
  0.475000  0.053571  0.027778      8.000000
  0.025000  0.089286  0.027778      8.000000
  0.075000  0.089286  0.027778      8.000000
  0.125000  0.089286  0.027778      8.000000
  0.175000  0.089286  0.027778      8.000000
  0.225000  0.089286  0.027778      8.000000
  0.275000  0.089286  0.027778      8.000000
  0.325000  0.089286  0.027778      8.000000
  0.375000  0.089286  0.027778      8.000000
  0.425000  0.089286  0.027778      8.000000
  0.475000  0.089286  0.027778      8.000000
  0.025000  0.125000  0.027778      8.000000
  0.075000  0.125000  0.027778      8.000000
  0.125000  0.125000  0.027778      8.000000
  0.175000  0.125000  0.027778      8.000000
  0.225000  0.125000  0.027778      8.000000
  0.275000  0.125000  0.027778      8.000000
  0.325000  0.125000  0.027778      8.000000
  0.375000  0.125000  0.027778      8.000000
  0.425000  0.125000  0.027778      8.000000
  0.475000  0.125000  0.027778      8.000000
  0.025000  0.160714  0.027778      8.000000
  0.075000  0.160714  0.027778      8.000000
  0.125000  0.160714  0.027778      8.000000
  0.175000  0.160714  0.027778      8.000000
  0.225000  0.160714  0.027778      8.000000
  0.275000  0.160714  0.027778      8.000000
  0.325000  0.160714  0.027778      8.000000
  0.375000  0.160714  0.027778      8.000000
  0.425000  0.160714  0.027778      8.000000
  0.475000  0.160714  0.027778      8.000000
  0.025000  0.196429  0.027778      8.000000
  0.075000  0.196429  0.027778      8.000000
  0.125000  0.196429  0.027778      8.000000
  0.175000  0.196429  0.027778      8.000000
  0.225000  0.196429  0.027778      8.000000
  0.275000  0.196429  0.027778      8.000000
  0.325000  0.196429  0.027778      8.000000
  0.375000  0.196429  0.027778      8.000000
  0.425000  0.196429  0.027778      8.000000
  0.475000  0.196429  0.027778      8.000000
[...]
  0.275000  0.446429  0.472222      8.000000
  0.325000  0.446429  0.472222      8.000000
  0.375000  0.446429  0.472222      8.000000
  0.425000  0.446429  0.472222      8.000000
  0.475000  0.446429  0.472222      8.000000
  0.025000  0.482143  0.472222      8.000000
  0.075000  0.482143  0.472222      8.000000
  0.125000  0.482143  0.472222      8.000000
  0.175000  0.482143  0.472222      8.000000
  0.225000  0.482143  0.472222      8.000000
  0.275000  0.482143  0.472222      8.000000
  0.325000  0.482143  0.472222      8.000000
  0.375000  0.482143  0.472222      8.000000
  0.425000  0.482143  0.472222      8.000000
  0.475000  0.482143  0.472222      8.000000

 Following cartesian coordinates:
            Coordinates               Weight
  0.004385  0.004416  0.004479      8.000000
  0.013156  0.004416  0.004479      8.000000
  0.021926  0.004416  0.004479      8.000000
  0.030697  0.004416  0.004479      8.000000
  0.039467  0.004416  0.004479      8.000000
  0.048237  0.004416  0.004479      8.000000
  0.057008  0.004416  0.004479      8.000000
  0.065778  0.004416  0.004479      8.000000
  0.074549  0.004416  0.004479      8.000000
  0.083319  0.004416  0.004479      8.000000
  0.004385  0.013247  0.004479      8.000000
  0.013156  0.013247  0.004479      8.000000
  0.021926  0.013247  0.004479      8.000000
  0.030697  0.013247  0.004479      8.000000
  0.039467  0.013247  0.004479      8.000000
  0.048237  0.013247  0.004479      8.000000
  0.057008  0.013247  0.004479      8.000000
  0.065778  0.013247  0.004479      8.000000
  0.074549  0.013247  0.004479      8.000000
  0.083319  0.013247  0.004479      8.000000
  0.004385  0.022078  0.004479      8.000000
  0.013156  0.022078  0.004479      8.000000
  0.021926  0.022078  0.004479      8.000000
  0.030697  0.022078  0.004479      8.000000
  0.039467  0.022078  0.004479      8.000000
  0.048237  0.022078  0.004479      8.000000
  0.057008  0.022078  0.004479      8.000000
  0.065778  0.022078  0.004479      8.000000
  0.074549  0.022078  0.004479      8.000000
  0.083319  0.022078  0.004479      8.000000
  0.004385  0.030910  0.004479      8.000000
  0.013156  0.030910  0.004479      8.000000
  0.021926  0.030910  0.004479      8.000000
  0.030697  0.030910  0.004479      8.000000
[...]
 k-point    27 :   0.3250 0.0893 0.0278  plane waves:    4758
 k-point    28 :   0.3750 0.0893 0.0278  plane waves:    4759
 k-point    29 :   0.4250 0.0893 0.0278  plane waves:    4761
 k-point    30 :   0.4750 0.0893 0.0278  plane waves:    4761
 k-point    31 :   0.0250 0.1250 0.0278  plane waves:    4757
 k-point    32 :   0.0750 0.1250 0.0278  plane waves:    4756
 k-point    33 :   0.1250 0.1250 0.0278  plane waves:    4764
 k-point    34 :   0.1750 0.1250 0.0278  plane waves:    4771
 k-point    35 :   0.2250 0.1250 0.0278  plane waves:    4777
 k-point    36 :   0.2750 0.1250 0.0278  plane waves:    4778
 k-point    37 :   0.3250 0.1250 0.0278  plane waves:    4767
 k-point    38 :   0.3750 0.1250 0.0278  plane waves:    4763
 k-point    39 :   0.4250 0.1250 0.0278  plane waves:    4770
 k-point    40 :   0.4750 0.1250 0.0278  plane waves:    4759
 k-point    41 :   0.0250 0.1607 0.0278  plane waves:    4748
 k-point    42 :   0.0750 0.1607 0.0278  plane waves:    4754
 k-point    43 :   0.1250 0.1607 0.0278  plane waves:    4759
 k-point    44 :   0.1750 0.1607 0.0278  plane waves:    4765
 k-point    45 :   0.2250 0.1607 0.0278  plane waves:    4774
 k-point    46 :   0.2750 0.1607 0.0278  plane waves:    4777
 k-point    47 :   0.3250 0.1607 0.0278  plane waves:    4774
 k-point    48 :   0.3750 0.1607 0.0278  plane waves:    4767
 k-point    49 :   0.4250 0.1607 0.0278  plane waves:    4770
 k-point    50 :   0.4750 0.1607 0.0278  plane waves:    4761
 k-point    51 :   0.0250 0.1964 0.0278  plane waves:    4760
 k-point    52 :   0.0750 0.1964 0.0278  plane waves:    4762
 k-point    53 :   0.1250 0.1964 0.0278  plane waves:    4763
 k-point    54 :   0.1750 0.1964 0.0278  plane waves:    4766
 k-point    55 :   0.2250 0.1964 0.0278  plane waves:    4772
 k-point    56 :   0.2750 0.1964 0.0278  plane waves:    4776
 k-point    57 :   0.3250 0.1964 0.0278  plane waves:    4774
 k-point    58 :   0.3750 0.1964 0.0278  plane waves:    4779
 k-point    59 :   0.4250 0.1964 0.0278  plane waves:    4766
 k-point    60 :   0.4750 0.1964 0.0278  plane waves:    4762
[...]
 k-point  1246 :   0.2750 0.4464 0.4722  plane waves:    4779
 k-point  1247 :   0.3250 0.4464 0.4722  plane waves:    4769
 k-point  1248 :   0.3750 0.4464 0.4722  plane waves:    4763
 k-point  1249 :   0.4250 0.4464 0.4722  plane waves:    4753
 k-point  1250 :   0.4750 0.4464 0.4722  plane waves:    4754
 k-point  1251 :   0.0250 0.4821 0.4722  plane waves:    4785
 k-point  1252 :   0.0750 0.4821 0.4722  plane waves:    4784
 k-point  1253 :   0.1250 0.4821 0.4722  plane waves:    4791
 k-point  1254 :   0.1750 0.4821 0.4722  plane waves:    4784
 k-point  1255 :   0.2250 0.4821 0.4722  plane waves:    4780
 k-point  1256 :   0.2750 0.4821 0.4722  plane waves:    4775
 k-point  1257 :   0.3250 0.4821 0.4722  plane waves:    4772
 k-point  1258 :   0.3750 0.4821 0.4722  plane waves:    4760
 k-point  1259 :   0.4250 0.4821 0.4722  plane waves:    4762
 k-point  1260 :   0.4750 0.4821 0.4722  plane waves:    4755

 maximum and minimum number of plane-waves per node :      4810     4732

 maximum number of plane-waves:      4810
 maximum index in each direction:
   IXMAX=   11   IYMAX=    8   IZMAX=   12
   IXMIN=  -11   IYMIN=   -8   IZMIN=  -12

 serial   3D FFT for wavefunctions
 parallel 3D FFT for charge:
    minimum data exchange during FFTs selected (reduces bandwidth)

 Broyden mixing: mesh for mixing (old mesh)
   NGX = 23   NGY = 17   NGZ = 25
  (NGX  = 96   NGY  = 64   NGZ  =100)
  gives a total of   9775 points

 initial charge density was supplied:
 charge density of overlapping atoms calculated
 number of electron      42.0000000 magnetization
 keeping initial charge density in first step

 Maximum index for augmentation-charges          471 (set IRDMAX)

 First call to EWALD:  gamma=   0.339
 Maximum number of real-space cells 3x 3x 2
 Maximum number of reciprocal cells 3x 2x 3

--------------------------------------- Ionic step        1  -------------------------------------------

--------------------------------------- Iteration      1(   1)  ---------------------------------------

 eigenvalue-minimisations  :120960
 total energy-change (2. order) : 0.7887235E+02  (-0.2001729E+04)
 number of electron      42.0000000 magnetization
 augmentation part       42.0000000 magnetization

 Free energy of the ion-electron system (eV)
  alpha Z        PSCENC =        94.30280740
  Ewald energy   TEWEN  =      -798.79353645
  -Hartree energ DENC   =      -269.52400652
  -exchange      EXHF   =         0.00000000
  -V(xc)+E(xc)   XCENC  =        97.46456534
  PAW double counting   =       608.99811708     -597.02363782
  entropy T*S    EENTRO =        -0.00847507
  eigenvalues    EBANDS =       -52.91789408
  atomic energy  EATOM  =       996.37441054
  Solvation  Ediel_sol  =         0.00000000
  free energy    TOTEN  =        78.87235043 eV

  energy without entropy =       78.88082550  energy(sigma->0) =       78.87658797

[...]

 eigenvalue-minimisations  :166440
 total energy-change (2. order) :-0.1706110E+03  (-0.1598555E+03)
 number of electron      42.0000000 magnetization
 augmentation part       42.0000000 magnetization

[...]

 Broyden mixing:
  rms(total) = 0.12302E+01    rms(broyden)= 0.12302E+01
  rms(prec ) = 0.22536E+01
  weight for this iteration     100.00

[...]

 eigenvalues of (default mixing * dielectric matrix)
  average eigenvalue GAMMA=   2.0805
  2.0805

[...]

 eigenvalue-minimisations  :180504
 total energy-change (2. order) : 0.1646452E+01  (-0.3178635E+00)
 number of electron      41.9999999 magnetization
 augmentation part       -0.1728199 magnetization

[...]

 Broyden mixing:
  rms(total) = 0.19533E-03    rms(broyden)= 0.19533E-03
  rms(prec ) = 0.31337E-03
  weight for this iteration     100.00

 eigenvalues of (default mixing * dielectric matrix)
  average eigenvalue GAMMA=   1.7742
  3.2945  2.4995  2.0465  1.8011  1.4944  0.9842  1.0367  1.0367

[...]

--------------------------------------- Iteration      1(  14)  ---------------------------------------

 eigenvalue-minimisations  :151032
 total energy-change (2. order) :-0.9190373E-06  (-0.5428790E-07)
 number of electron      41.9999999 magnetization
 augmentation part       -0.1776904 magnetization

 Free energy of the ion-electron system (eV)
  alpha Z        PSCENC =        94.30280740
  Ewald energy   TEWEN  =      -798.79353645
  -Hartree energ DENC   =      -346.68806801
  -exchange      EXHF   =         0.00000000
  -V(xc)+E(xc)   XCENC  =       101.54644984
  PAW double counting   =      3725.06999157    -3714.25296966
  entropy T*S    EENTRO =        -0.01341524
  eigenvalues    EBANDS =      -148.18553430
  atomic energy  EATOM  =       996.37441054
  Solvation  Ediel_sol  =         0.00000000
  free energy    TOTEN  =       -90.63986430 eV

  energy without entropy =      -90.62644907  energy(sigma->0) =      -90.63315669

 average (electrostatic) potential at core
  the test charge radii are     0.7672
  (the norm of the test charge is              1.0000)
       1 -29.9624       2 -29.9624       3 -29.9624       4 -29.9624       5 -28.9386
       6 -28.9386       7 -28.9386       8 -28.9386       9 -29.3450      10 -29.3450
      11 -29.3450      12 -29.3450      13 -29.9116      14 -29.9116

 E-fermi :   1.9151     XC(G=0):  -9.4486     alpha+bet :-10.8673

 val. band max:        1.9150235178   @ k =   0.0750   0.0893   0.0278
 cond. band min:       1.9153510899   @ k =   0.0250   0.0893   0.0833
 fundamental gap:      0.0003275721
 Fermi energy:         1.9151393728

 k-point     1 :       0.0250    0.0179    0.0278
  band No.  band energies     occupation
      1     -12.6968      2.00000
      2     -11.5213      2.00000
      3      -8.6579      2.00000
      4      -8.3635      2.00000
      5      -6.0590      2.00000
      6      -5.1271      2.00000
      7      -4.6686      2.00000
      8      -4.3449      2.00000
      9      -3.9517      2.00000
     10      -3.5056      2.00000
     11      -2.3794      2.00000
     12      -2.3656      2.00000
     13      -1.9682      2.00000
     14      -1.0793      2.00000
     15      -0.0414      2.00000
     16       0.0277      2.00000
     17       0.0410      2.00000
     18       0.0803      2.00000
     19       0.6565      2.00000
     20       2.0986      0.00948
     21       2.1361      0.00178
     22       2.2689      0.00000
     23       5.5152      0.00000
     24       5.7091      0.00000
     25       5.7517      0.00000
     26       5.9766      0.00000
     27       6.7404      0.00000
     28       7.6263      0.00000
     29       7.7979      0.00000
     30       8.6001      0.00000
     31       8.8316      0.00000
     32       8.9291      0.00000
     33       9.0589      0.00000
     34      10.0556      0.00000
     35      11.2026      0.00000
     36      11.3873      0.00000
     37      11.5219      0.00000
     38      11.7218      0.00000
     39      11.9637      0.00000
     40      12.3105      0.00000
     41      12.9470      0.00000
     42      13.3438      0.00000
     43      13.5342      0.00000
     44      15.5021      0.00000
     45      15.5311      0.00000
     46      15.9377      0.00000
     47      16.3100      0.00000
     48      16.4345      0.00000

[...]

 k-point  1260 :       0.4750    0.4821    0.4722
  band No.  band energies     occupation
      1     -11.9381      2.00000
      2     -11.8669      2.00000
      3      -8.4918      2.00000
      4      -8.4308      2.00000
      5      -5.8894      2.00000
      6      -5.8366      2.00000
      7      -4.6881      2.00000
      8      -4.5384      2.00000
      9      -4.4360      2.00000
     10      -4.2104      2.00000
     11      -2.2008      2.00000
     12      -2.1721      2.00000
     13      -1.9763      2.00000
     14      -1.8320      2.00000
     15      -0.1108      2.00000
     16       0.0065      2.00000
     17       0.4754      2.00000
     18       0.5014      2.00000
     19       0.5172      2.00000
     20       0.6935      2.00000
     21       1.7027      1.99734
     22       1.7427      1.98526
     23       5.8931      0.00000
     24       5.9795      0.00000
     25       6.9941      0.00000
     26       7.3055      0.00000
     27       7.5586      0.00000
     28       7.6169      0.00000
     29       9.4880      0.00000
     30       9.6072      0.00000
     31       9.8042      0.00000
     32       9.8648      0.00000
     33      10.4461      0.00000
     34      10.6579      0.00000
     35      11.2750      0.00000
     36      11.4403      0.00000
     37      11.5324      0.00000
     38      11.5613      0.00000
     39      13.1530      0.00000
     40      13.1940      0.00000
     41      13.9076      0.00000
     42      14.1553      0.00000
     43      14.2474      0.00000
     44      14.3004      0.00000
     45      14.7047      0.00000
     46      14.7391      0.00000
     47      14.8173      0.00000
     48      14.9161      0.00000

 soft charge-density along one line, spin component           1
         0         1         2         3         4         5         6         7         8         9
 total charge-density along one line

------------------------ aborting loop because EDIFF is reached ----------------------------------------

         DFTD3 V3.0 Rev 1
 DF pbe
 parameters
 k1-k3        =   16.0000    1.3333   -4.0000
 Edisp (eV)   -1.96230

 E6    (eV) :    -1.3220
 E8    (eV) :    -0.6403
 % E8        : 32.63

  FORCE on cell =-STRESS in cart. coord.  units (eV):
  Direction    XX          YY          ZZ          XY          YZ          ZX
  Alpha Z    94.30281    94.30281    94.30281
  Ewald     -93.12989  -561.95728  -143.70902    -0.00000    -0.00000     0.00000
  Hartree   186.62870     4.31588   155.74455    -0.00000    -0.00000    -0.00000
  E(xc)    -134.85414  -135.83640  -134.82695     0.00000    -0.00000     0.00000
  Local    -491.09289   131.23334  -408.63987     0.00000    -0.00000    -0.00000
  n-local    -8.83522   -10.96714    -9.33340    -0.00416    -0.00412     0.05579
  augment     1.34852     1.39248     1.36869     0.00000    -0.00000    -0.00000
  Kinetic   445.61156   477.51530   445.16826     0.23177     0.05207    -1.04110
  Fock        0.00000     0.00000     0.00000     0.00000     0.00000     0.00000
  vdW        -2.04354    -2.13134    -2.01285     0.00000     0.00000     0.00000
  Total      -2.06408    -2.13236    -1.93778     0.00000     0.00000    -0.00000
  in kB     -23.12857   -23.89359   -21.71332     0.00000     0.00000    -0.00000

 VOLUME and BASIS-vectors are now :
  energy-cutoff  :      600.00
  volume of cell :      142.98
      direct lattice vectors                 reciprocal lattice vectors
     5.700970695  0.000000000  0.000000000     0.175408725  0.000000000  0.000000000
     0.000000000  4.044058096  0.000000000     0.000000000  0.247276368  0.000000000
     0.000000000  0.000000000  6.201871195     0.000000000  0.000000000  0.161241659

  length of vectors
     5.700970695  4.044058096  6.201871195     0.175408725  0.247276368  0.161241659

 FORCES acting on ions
    electron-ion (+dipol)            ewald-force                    non-local-force                 convergence-correction
   0.492E+02 0.947E-12 -.247E+02   -.511E+02 0.185E-14 0.280E+02   0.184E+01 0.150E-18 -.334E+01   -.995E-04 0.406E-15 0.839E-04
   -.492E+02 -.251E-12 0.247E+02   0.511E+02 0.687E-16 -.280E+02   -.184E+01 -.127E-18 0.334E+01   0.995E-04 -.167E-15 -.839E-04
   -.492E+02 0.927E-12 -.247E+02   0.511E+02 -.149E-14 0.280E+02   -.184E+01 -.261E-18 -.334E+01   0.995E-04 0.824E-15 0.839E-04
   0.492E+02 -.173E-13 0.247E+02   -.511E+02 -.171E-14 -.280E+02   0.184E+01 0.172E-18 0.334E+01   -.995E-04 -.593E-15 -.839E-04
   0.291E+02 -.303E-12 -.508E+02   -.315E+02 0.387E-14 0.550E+02   0.247E+01 -.106E-18 -.423E+01   -.739E-04 0.295E-15 -.938E-05
   -.291E+02 0.372E-12 0.508E+02   0.315E+02 0.345E-14 -.550E+02   -.247E+01 -.172E-18 0.423E+01   0.739E-04 0.215E-15 0.938E-05
   -.291E+02 -.130E-11 -.508E+02   0.315E+02 0.431E-14 0.550E+02   -.247E+01 0.118E-18 -.423E+01   0.739E-04 -.495E-15 -.938E-05
   0.291E+02 0.183E-13 0.508E+02   -.315E+02 0.344E-14 -.550E+02   0.247E+01 0.160E-18 0.423E+01   -.739E-04 0.538E-15 0.938E-05
   0.307E-13 -.552E+02 -.161E+02   0.938E-14 0.606E+02 0.172E+02   -.155E-18 -.542E+01 -.111E+01   0.191E-13 0.188E-03 0.122E-03
   0.122E-13 0.552E+02 0.161E+02   0.312E-14 -.606E+02 -.172E+02   -.781E-18 0.542E+01 0.111E+01   -.150E-13 -.188E-03 -.122E-03
   0.312E-13 0.552E+02 -.161E+02   0.561E-14 -.606E+02 0.172E+02   0.223E-17 0.542E+01 -.111E+01   0.192E-13 -.188E-03 0.122E-03
   0.132E-13 -.552E+02 0.161E+02   -.935E-15 0.606E+02 -.172E+02   0.206E-17 -.542E+01 0.111E+01   -.150E-13 0.188E-03 -.122E-03
   0.292E-14 0.314E-12 -.621E+02   -.559E-13 0.564E-16 0.647E+02   -.259E-18 0.325E-19 -.258E+01   -.150E-13 -.255E-16 0.108E-03
   0.448E-14 -.427E-13 0.621E+02   -.571E-13 -.472E-15 -.647E+02   0.231E-18 0.258E-19 0.258E+01   0.148E-13 0.402E-15 -.108E-03
   -.119E-11 0.667E-12 0.274E-10   -.389E-13 -.415E-15 -.142E-13   0.333E-17 0.888E-15 -.133E-14   0.110E-13 0.142E-14 -.771E-13

 POSITION                                       TOTAL-FORCE (eV/Angst)
      2.97186      2.02203      3.95653        -0.014954      0.000000      0.004902
      2.72911      2.02203      2.24534         0.014954      0.000000     -0.004902
      5.57960      2.02203      3.95653         0.014954     -0.000000      0.004902
      0.12137      2.02203      2.24534        -0.014954     -0.000000     -0.004902
      3.40604      2.02203      5.58087        -0.005685      0.000000      0.010526
      2.29493      2.02203      0.62100         0.005685      0.000000     -0.010526
      5.14541      2.02203      5.58087         0.005685     -0.000000      0.010526
      0.55556      2.02203      0.62100        -0.005685      0.000000     -0.010526
      4.27573      3.20113      4.52476        -0.000000      0.007247     -0.005940
      1.42524      0.84292      1.67711        -0.000000     -0.007247      0.005940
      4.27573      0.84292      4.52476        -0.000000     -0.007247     -0.005940
      1.42524      3.20113      1.67711        -0.000000      0.007247      0.005940
      1.42524      2.02203      3.24974        -0.000000     -0.000000      0.013252
      4.27573      2.02203      2.95213        -0.000000     -0.000000     -0.013252
    total drift:                               -0.000000      0.000000      0.000000

  FREE ENERGIE OF THE ION-ELECTRON SYSTEM (eV)
  free  energy   TOTEN  =       -92.60216057 eV

  energy  without entropy=      -92.58874533  energy(sigma->0) =      -92.59545295

 writing wavefunctions